##TITLE=CEC-PhSi2-flow(sequence-1115)-06-09-26
##JCAMP-DX=5.01 $$ Nanalysis NMReady v2.2.5.1
##DATA TYPE=NMR FID
##DATA CLASS=NTUPLES
##ORIGIN=Nanalysis Corp.
##OWNER=Nanalysis
##LONG DATE=2026/06/09 11:24:34-0400
##SPECTROMETER/DATA SYSTEM=NMReady 60/nanalysis-X542
##INSTRUMENTAL PARAMETERS=^1H
##TEMPERATURE=32.999969
##PRESSURE=1.000000  $$ Bar
##RESOLUTION=0.00001999999949
##SAMPLE DESCRIPTION=None
##.OBSERVE FREQUENCY=60.55082561149307
##.OBSERVE NUCLEUS=^1H
##.SOLVENT NAME=Toluene
##.ACQUISITION MODE=SIMULTANEOUS
##.SHIFT REFERENCE=INTERNAL, Toluene, 4096, 5.00000000000000
##.SOLVENT REFERENCE=5.00000000000000
##.PULSE SEQUENCE=1D
##.DELAY=(0.000000,0.000000)
##.FIELD=1.422199  $$ Tesla
##.OBSERVE 90=15.789399
##.ACQUISITION TIME=6.55279983446235
##.ZERO FILL=0
##.AVERAGES=4
##.DIGITISER RES=16
##.SPINNING RATE=0.000000
$$##.PHASE 0=-20.00000000000000
$$##.PHASE 1=79.00000000000000
$$ NMReady specific parameters
##$SCANS=4
##$SCAN DELAY=1.000014
##$TOTAL DURATION=31.338313
##$X_PULSE=14.210050
##$RECVR_GAIN=12
##$SWEEP WIDTH=20.000000
##$RELAXATIONDELAY=1.280964
##$ZEROING=7.000000
##$APODIZATION=0.030000
##$PHASECORRECTION=-20.000000,79.000000
##$PIVOT=0.000000
##$DT=0.000020
##$LOCKOFFSET=2.080000
##$SPECTRALCENTER=5.000000
##$DECIMATION=40
##$LOWESTF2=-322.245888
##$T2NUCLEUS=1H
##$PULSE_AMPLITUDE=17.500000
##$PLOTTYPE=1D
##$INTEGRALS IS MANUAL=True
##$INTEGRALS REFERENCE ENERGY=-16.635311262488
##$INTEGRALS START=3.014749
##$INTEGRALS END=3.149808
##$EXPERIMENT_SETTING_Apodization=0.03
##$EXPERIMENT_SETTING_Decoupling Mode=Off
##$EXPERIMENT_SETTING_Digital Resolution=0.02 Hz
##$EXPERIMENT_SETTING_Dummy Scans=0
##$EXPERIMENT_SETTING_Dwell Time=0.50 us
##$EXPERIMENT_SETTING_NPoints (Complex)=8192
##$EXPERIMENT_SETTING_Nucleus=1H
##$EXPERIMENT_SETTING_Pulse Angle=80.37, °
##$EXPERIMENT_SETTING_Pulse Width=14.21 us
##$EXPERIMENT_SETTING_Receiver Gain=12.00 dB
##$EXPERIMENT_SETTING_Receiver Gain (dB)=12, Auto
##$EXPERIMENT_SETTING_Scan Delay=1.0 s
##$EXPERIMENT_SETTING_Scans=4
##$EXPERIMENT_SETTING_Solvent=Toluene
##$EXPERIMENT_SETTING_Spectral Center=5.00 ppm
##$EXPERIMENT_SETTING_Spectral Width=20 ppm
##$EXPERIMENT_SETTING_TX Frequency=60.550826 MHz
##$EXPERIMENT_SETTING_Time Per Scan=7.8 sec
##$EXPERIMENT_SETTING_Zero Filling=7
##$RDC_ENABLED=1
##$RDC_TYPE=CONT5PAR
##$RDC_DATA=(0.145553,5.475700,2.437884,0.765625,0.888815)
$$ End of NMReady specific parameters
$$ Bruker specific parameters
$$ --------------------------
##$DATE=1781018674
##$SI= 65536
##$TDeff= 8192
##$SFO1= 60.55082561149307
##$O1= 302.75412805746532
##$SF= 60.55052285736501
##$BF1= 60.55052285736501
##$AQ= 6.55279983446235
##$SWH= 1250.00003157765696
##$SW= 20.64381482752890
##$SR= 0.00000000000000
##$OFFSET= 15.32198402359439
##$FIDRES= 0.15258789447969
##$O1P= 5.00000000000000
##$TD= 16384
##$DW= 399.99998989515007
##$SPECTYP= PROTON
##$NS= 4
##$DS= 0
##$DR= 16
##$DE=1.000014
##$RG=12
##$P1=14.210050
##$P= (0..2)
0.0 14.210050
##$PHC0= 59.50000000000000
##$PHC1= -79.00000000000000
##$PH_mod= 1
##$WDW= 1
##$LB= 0.02999999932945
$$ End of Bruker specific parameters
$$ ---------------------------------
##NPOINTS=8192
##DELTAX=0.0008000000
##NTUPLES=NMR FID
##VAR_NAME=TIME,FID/REAL,FID/IMAG,PAGE NUMBER
##SYMBOL=X,R,I,N
##VAR_TYPE=INDEPENDENT,DEPENDENT,DEPENDENT,PAGE
##VAR_FORM=AFFN,AFFN,AFFN,AFFN
##VAR_DIM=8192,8192,8192,2
##UNITS=SECONDS,ARBITRARY UNITS,ARBITRARY UNITS,
##FIRST=0.000000,1264.377904,387.034900,1
##LAST=6.552800,0.000033,-0.000006,2
##MIN=0.000000,-1161.960013,-871.729971,1
##MAX=6.552800,1264.377904,1023.054488,2
##FACTOR=0.00079999997979030013,0.00000058877202003691,0.00000058877202003691,1
##PAGE=N=1
##DATA TABLE= (X++(R..R)), XYDATA
      0.00000000     2147483000     1388891088     -211807198    -1525587206
      4.00000000    -1973531305    -1427472359     -333757752      690249007
      8.00000000     1184614679     1090633215      601629462       76725115
     12.00000000     -213721113     -268505712     -309238292     -515311288
     16.00000000     -808672579     -853245475     -389495643      492410473
     20.00000000     1316145273     1564339495     1023509563      -60716831
     24.00000000    -1134982539    -1638712538    -1329282009     -398746060
     28.00000000      613568202     1167701316     1063353709      533370085
     32.00000000       -2053072     -257274502     -271358599     -274027749
     36.00000000     -421406186     -625333388     -638569478     -269795915
     40.00000000      404793867     1052366736     1256341997      804294840
     44.00000000     -133533815    -1059122997    -1438172226    -1059507540
     48.00000000     -170664506      698600930     1081283300      865618304
     52.00000000      309159931     -185962323     -371653993     -272432194
     56.00000000     -115431167     -113827595     -281786028     -423754510
     60.00000000     -295676409      159260505      712966263      985425822
     64.00000000      715821081      -13949008     -802061341    -1179292301
     68.00000000     -921719845     -193381102      566277467      935823368
     72.00000000      767189513      255830544     -231585057     -418797153
     76.00000000     -294417999      -75117344        -799862     -127592761
     80.00000000     -296021930     -261721156       70437170      534081737
     84.00000000      798898817      621131004       33341929     -643817386
     88.00000000    -1000550494     -814797911     -198048159      483295631
     92.00000000      837335021      701138182      227678885     -249654440
     96.00000000     -450155303     -330396029      -80852880       55719108
    100.00000000      -20288930     -186432982     -224501688         932174
    104.00000000      384753591      657854836      566943731       99826446
    108.00000000     -498679276     -861068450     -749538254     -222151688
    112.00000000      408572169      773966437      686842526      247902112
    116.00000000     -233841022     -468554342     -375059589     -111946741
    120.00000000       73953691       47298411     -107917546     -182209991
    124.00000000      -33348528      278578076      530209576      491811501
    128.00000000      119085377     -392920951     -740057129     -684027429
    132.00000000     -236914839      347841162      721023178      674210467
    136.00000000      267492636     -213429264     -469767359     -397350515
    140.00000000     -131925783       80509392      101140394      -23610664
    144.00000000     -125344570      -55642190      172971394      396061169
    148.00000000      408381488      136820057     -300307933     -632217011
    152.00000000     -622529042     -241501572      292038181      652614730
    156.00000000      629746593      266971303     -179367601     -442485782
    160.00000000     -402544165     -159239302       82935382      160726387
    164.00000000       68056139      -64479212      -78933330       73700693
    168.00000000      276416003      339059440      143332911     -222912813
    172.00000000     -527080443     -544210853     -234530747      227379833
    176.00000000      559526432      570561324      266921796     -147837336
    180.00000000     -419676504     -412938942     -177823779       94006727
    184.00000000      213859455      136612795      -18320714      -87562928
    188.00000000        3931694      179102538      266442642      145131594
    192.00000000     -136454263     -401394089     -459081018     -238254076
    196.00000000      146235029      465385021      515748000      268548081
    200.00000000     -116514768     -397895664     -414378831     -193777048
    204.00000000       83597717      230989871      182675537       25888494
    208.00000000      -80592870      -45562388       90673660      200344377
    212.00000000      149792745      -61988228     -297236666     -385294736
    216.00000000     -230431069       97226741      394901399      464620387
    220.00000000      262143876      -87833549     -366674695     -411557529
    224.00000000     -221153305       51612506      232925117      226069008
    228.00000000       81368232      -61607223      -86926021        7917429
    232.00000000      121070091      125513936      -13908844     -209178374
    236.00000000     -303043716     -199194421       66639122      328676020
    240.00000000      413268944      255509440      -55759000     -328442806
    244.00000000     -400508733     -242288636       26297352      233537208
    248.00000000      262950702      130115491      -42724956     -122333104
    252.00000000      -64054490       46944214       93855240       17639064
    256.00000000     -133473455     -232031719     -173575240       35525075
    260.00000000      267391623      363335500      244415596      -27389476
    264.00000000     -290335384     -380776442     -251015708       11229741
    268.00000000      232712210      288674120      172175598      -16179930
    272.00000000     -141774863     -133626049      -27738006       62850963
    276.00000000       49209592      -52541900     -153670825     -143829557
    280.00000000       -3511244      186765319      290910920      220928306
    284.00000000        2390059     -232487868     -334755541     -239057833
    288.00000000       -6170606      214862757      293561880      195063103
    292.00000000        2341873     -147331128     -168787162      -76306867
    296.00000000       36548734       73476596       10180806      -80847758
    300.00000000     -109198114      -30598977      113362446      209514511
    304.00000000      177018773       12808554     -184776857     -284009986
    308.00000000     -215754733      -10700022      198219691      285897147
    312.00000000      200364094        8553461     -160117811     -203174230
    316.00000000     -116384774       22598558      107066498       85745537
    320.00000000       -3856319      -78151583      -63779841       27931476
    324.00000000      123849672      133265418       31713417     -124577051
    328.00000000     -220647205     -181114714      -21523036      160050363
    332.00000000      248920579      184752474       16445183     -153547302
    336.00000000     -209726978     -139398375        7258571      119623028
    340.00000000      133749819       54023747      -43532144      -77179060
    344.00000000      -27739061       56746969       95122321       38926071
    348.00000000      -70544628     -156034563     -143136651      -27803795
    352.00000000      123924362      208576758      167836152       18776387
    356.00000000     -141102381     -211812454     -150920545        -937520
    360.00000000      129213436      159522960       88019590      -23823766
    364.00000000      -90646511      -71940581        6486009       69008345
    368.00000000       61557240      -15708796      -98665526     -120076604
    372.00000000      -49460152       73339091      166097909      155162571
    376.00000000       40642044     -110634375     -192673403     -158274508
    380.00000000      -30097776      107077971      162711662      116303389
    384.00000000        4749331      -83453378      -97216694      -38105184
    388.00000000       34715920       65181627       26071841      -44646396
    392.00000000      -85577207      -52188465       36771910      121462791
    396.00000000      129132272       45745860      -79757963     -162408685
    400.00000000     -148323606      -41782107       83651717      151338603
    404.00000000      123138761       23965312      -78366372     -114949265
    408.00000000      -71407262       10741043       66456221       57730236
    412.00000000        -276629      -52968248      -52210959        8914632
    416.00000000       78211738      102310457       49617682      -48008614
    420.00000000     -126895114     -130278898      -49866198       65961319
    424.00000000      140607089      126763311       35931920      -69983546
    428.00000000     -124954195      -97637938      -15088185       60822425
    432.00000000       78508136       35884196      -23432295      -51934823
    436.00000000      -23026426       35532759       71193512       51623775
    440.00000000      -17600379      -89861529     -103157194      -44889687
    444.00000000       47827896      117340803      116692697       40856720
    448.00000000      -58131273     -118770588     -103547463      -29321803
    452.00000000       52562430       89808563       60557555       -3140812
    456.00000000      -51014031      -49222370       -4403008       39273573
    460.00000000       46860578        7239271      -48548111      -75402029
    464.00000000      -44354519       26523587       93254730       99563073
    468.00000000       43359076      -42955547     -103439002      -99170773
    472.00000000      -33079524       48497050       93262533       72478977
    476.00000000        9076464      -49858963      -66843167      -32905052
    480.00000000       15569033       44659124       26905013      -18863854
    484.00000000      -49854678      -40800286        5877672       58381764
    488.00000000       76594272       40488077      -27016614      -82609008
    492.00000000      -87426736      -34304127       41297063       89572471
    496.00000000       79826488       18546038      -44739111      -73839583
    500.00000000      -52471062          38953       41911164       42459171
    504.00000000        6411146      -30872941      -39784356      -14271935
    508.00000000       29941749       54882210       38373736      -11507812
    512.00000000      -62554619      -73247288      -33699392       30100125
    516.00000000       78193960       77850065       28155357      -34095062
    520.00000000      -68888910      -57435829      -13418595       32925751
    524.00000000       48007523       26802674      -10539936      -33818727
    528.00000000      -26391445        6955548       35841733       33053090
    532.00000000       -1288101      -43129860      -58526361      -35206702
    536.00000000       18810508       61892511       66484220       31114466
    540.00000000      -22898285      -60775013      -57302857      -18722649
    544.00000000       27191970       51577676       37194042         342095
    548.00000000      -30089668      -30238550       -4272750       22790064
    552.00000000       29956030        6389862      -27011336      -45905819
    556.00000000      -32225051        4940856       46664323       58008574
    560.00000000       30469718      -16403335      -55073340      -57517641
    564.00000000      -23759799       21655578       49461349       45158335
    568.00000000       13769132      -20566435      -33329907      -17856970
    572.00000000        8680006       24436860       17475741       -6121932
    576.00000000      -28789911      -28706979       -2606322       29792004
    580.00000000       43425917       24964450      -12872013      -46403151
    584.00000000      -50835972      -25870091       15011112       44329474
    588.00000000       42251227       18235765      -17504555      -34649928
    592.00000000      -26417271        -102381       22710682       24323023
    596.00000000        5083273      -16436393      -23291152       -7163302
    600.00000000       18355207       34076610       24266692       -2741439
    604.00000000      -32178403      -43376209      -26978895        7832425
    608.00000000       35383207       39446744       20922971      -11113510
    612.00000000      -33080182      -28323664       -9985175       13156234
    616.00000000       19415767       11453171       -6059834      -15792510
    620.00000000       -8157871        9292757       24008510       20709980
    624.00000000        1202551      -24462771      -36292556      -23125843
    628.00000000        2972194       30504641       36174663       19396087
    632.00000000       -8726320      -29768964      -30525305      -13600411
    636.00000000        8563271       19567488       13052278       -3216721
    640.00000000      -15715471      -11238755        2789987       18790377
    644.00000000       19337260        3830467      -17973522      -29584330
    648.00000000      -22584281       -1243218       25222205       32888420
    652.00000000       24829649        -556414      -25377729      -30094296
    656.00000000      -18272598        2907991       17428873       17576221
    660.00000000        5178334       -7864451      -11380025       -3554413
    664.00000000        6902136       12237629        5083834      -10278051
    668.00000000      -20728939      -16553489       -1359334       19137980
    672.00000000       27825809       20881025         451139      -19732897
    676.00000000      -25646065      -16661916        2512931       16031467
    680.00000000       16523229        7906714       -5385013      -12222910
    684.00000000       -7704213        2220115        9482712        5632648
    688.00000000       -5474121      -16627546      -16639590       -3917948
    692.00000000       13016781       23806683       19480378        1925061
    696.00000000      -15977915      -23542437      -17850211       -2132570
    700.00000000       14534425       20873065       11498835        -279772
    704.00000000      -10852497       -8056195       -1015513        5451266
    708.00000000        5026232       -3013820      -11371489      -12179958
    712.00000000       -3431516       10084288       17675047       13421221
    716.00000000        2437452      -12654226      -22105892      -17325958
    720.00000000       -3792834       12279209       17489210       11230458
    724.00000000        2115352       -7664906       -8561043       -3723897
    728.00000000        4367992        5758913        1074280       -6844819
    732.00000000       -8784172       -2858762        6554206       15673859
    736.00000000       13613507        4766323      -10754434      -19625298
    740.00000000      -18207501       -4673786        8980154       16848024
    744.00000000       13032584        3429536       -5662194      -12054950
    748.00000000       -5741149        -242745        4014035        2956589
    752.00000000       -2589872       -5663270       -2540597        5236562
    756.00000000       11416129       10582618        4509316       -7672684
    760.00000000      -15928071      -13374069       -5718761        7537941
    764.00000000       15330568       13680035        3201269       -6207566
    768.00000000       -9411571       -7829705       -1644863        3239004
    772.00000000        2421024        -723151       -3424252       -2655866
    776.00000000        2762071       10080402       10851305        4731324
    780.00000000       -6039434      -14679390      -13277670       -5556214
    784.00000000        7363537       12965627       13482900        6012455
    788.00000000       -4389639      -10095333       -8248252       -4366771
    792.00000000        1182192        3331062        1566631       -1857559
    796.00000000       -1196308        1730350        7162600        7290778
    800.00000000        3667014       -4780587      -10873086      -10716907
    804.00000000       -3934752        5712871       12220308       12898427
    808.00000000        4928831       -3423306       -8316410       -9026801
    812.00000000       -4290696         897644        3584226         982007
    816.00000000        -651046       -1091546         543605        4911461
    820.00000000        5862896         753085       -4151734       -8738164
    824.00000000       -8183369       -4122336        4808832        8143283
    828.00000000        7857079        4759772       -3685620       -7152868
    832.00000000       -5943168       -2931390          69320        5245612
    836.00000000        3968509        2328256       -1740654       -1330899
    840.00000000        -267763        2136897        2004995       -1472028
    844.00000000       -3728014       -5976986       -2479680        3572427
    848.00000000        7652234        8261409        2094396        -660912
    852.00000000       -5339362       -8230277       -3260894        1826952
    856.00000000        4938896        5827019        2322043        -852247
    860.00000000       -2813031       -1419333         264474         162245
    864.00000000        -158740       -4258368       -4071444       -1612868
    868.00000000        1850088        5777826        6355441        3314069
    872.00000000       -2043694       -7260401       -8260069       -4059167
    876.00000000         793329        5487377        6610442        2790556
    880.00000000         -44717       -1337645       -1729744        -962601
    884.00000000        -386436        -106422        -856898       -2582266
    888.00000000        -746479         889932        5344568        6513369
    892.00000000        3660738       -1623446       -6598629       -7507398
    896.00000000       -4541482         436839        5109199        6371008
    900.00000000        3231814         782749       -1774832       -2303562
    904.00000000       -1901413        -677136       -1142738       -1725696
    908.00000000       -2239291        -786082         708966        5241843
    912.00000000        5252103        2585140       -1668621       -7054696
    916.00000000       -8263710       -5234549        1108923        6082264
    920.00000000        6834180        5381413        1407392       -2946041
    924.00000000       -3722038       -3776880       -1560796        -640482
    928.00000000        1277210        -279426        -734009         626037
    932.00000000        3437081        4355222        2673548        -139372
    936.00000000       -4300473       -6617787       -3830279        -347481
    940.00000000        4183994        6032315        6416165        -189717
    944.00000000       -3421161       -4491858       -4618086       -1242153
    948.00000000        1742579         299143        2254766         196699
    952.00000000        -397431        1637404        3779361        1285732
    956.00000000        -975008       -5025111       -5324175       -4052796
    960.00000000        -195248        4987096        6579379        4690952
    964.00000000        1106042       -3323664       -5242830       -5569878
    968.00000000       -1789566        1604510        3091573        2128459
    972.00000000        1913246         617585        -710804          53837
    976.00000000         502174       -1255017       -2405329       -2445485
    980.00000000       -2160016         178800        3858461        5643395
    984.00000000        4379815          43164       -2581965       -6089958
    988.00000000       -4012187       -1452942        1329592        2708402
    992.00000000        3864539         526349        -595438       -1461071
    996.00000000        -406100        -790903        -230170        -204362
   1000.00000000        -932497        -580202        1001738        1730500
   1004.00000000        1943050        1438676        -948715       -2686502
   1008.00000000       -4263452       -3562605       -1517217        2155371
   1012.00000000        3526045        2331193        1819968        -579443
   1016.00000000       -3132781       -2676273       -1100277         438286
   1020.00000000         718387        1883663         646876        1338316
   1024.00000000         513128         592997         622474         792892
   1028.00000000        -992939       -2966970       -2945354          -1012
   1032.00000000        1211635        3255024        3386744         923201
   1036.00000000        -683393       -1774825       -2651279        -657667
   1040.00000000         193821         355117          62072         349206
   1044.00000000         573768         832120         556331         178824
   1048.00000000         577474          75556       -2338437       -2584096
   1052.00000000       -1218043        1078287        2530329        2298454
   1056.00000000        1547666       -2016175       -3896907       -2040755
   1060.00000000        -672796        -896039        1712883        1764080
   1064.00000000        1076215         411967        -530148        -112468
   1068.00000000        -973071         627262        -441307        -621651
   1072.00000000        -977274         -80136        1252048        2695328
   1076.00000000        2746169        1421724       -1707101       -3755719
   1080.00000000       -3032850       -1366912         605822        2016090
   1084.00000000        2245714        1607848         169189       -1083066
   1088.00000000       -1695106       -1390649        -599622         834758
   1092.00000000        -905542         -74609         741944        1314911
   1096.00000000        2031690        1448494        1230848       -1861083
   1100.00000000       -3259894       -2735505       -1200966        1288391
   1104.00000000        3026061        2397796        1464629        -461870
   1108.00000000       -1918924       -3165024       -1057722        -498037
   1112.00000000        -218009         -81846        -173994         128562
   1116.00000000         582089          54997        -325766        -491560
   1120.00000000       -1263988       -1893324       -1740759       -1797054
   1124.00000000        1354374        2734489        3243359        1681760
   1128.00000000        -704896       -1715657       -3317486       -1712481
   1132.00000000        -979893         645566        1471382        1193923
   1136.00000000        1499448        -278562        -397653        -644044
   1140.00000000        -441103       -1251440       -1974757       -2031103
   1144.00000000         566007         328275        2356016        3082731
   1148.00000000        1123901         311203       -2645584       -2014658
   1152.00000000       -2177789        -495670        1476324        1932500
   1156.00000000        1697781         372022        -606830        -889819
   1160.00000000       -1247015        -974404       -1459849        -503234
   1164.00000000        -712375        -106901        1019567        1669598
   1168.00000000        2629457         834444        -870012       -1921277
   1172.00000000       -2847442       -2434456         -60376         391094
   1176.00000000        2358267        2217581         928432       -1413228
   1180.00000000        -942620       -2144819        -619096        -441333
   1184.00000000        -174918          88892        1012889         888823
   1188.00000000         980886         182011         676580       -1250759
   1192.00000000       -1337389       -2302317       -1529827         393912
   1196.00000000        1609897        2794207        2086879         996512
   1200.00000000        -321781       -1788506       -1404903        -565062
   1204.00000000        -991067        1587112        1027972         828965
   1208.00000000        1401011        1188704        -306283          20779
   1212.00000000       -1573332        -958944        -849638         -11077
   1216.00000000         638835        2172896        1455271        1560908
   1220.00000000           -509       -1130865       -1438310       -1842367
   1224.00000000        -101209         164390         931679        1433032
   1228.00000000         906372         399863        -587276        -481068
   1232.00000000        -155637        -346660        -102293       -1113345
   1236.00000000          70848         662521        1483557        1351839
   1240.00000000         350663        -174729       -2198937       -1644098
   1244.00000000       -2345237        -439905         825112        1498769
   1248.00000000        1589756        -176510        -241690           2828
   1252.00000000       -1324540        -533490        -963622          65137
   1256.00000000         916755         341617        1555228         133879
   1260.00000000         958223         237516         208857        -568188
   1264.00000000        -621178        -762144          74564         826136
   1268.00000000        1730910        1636162         151286        -506964
   1272.00000000        -308883       -1051309        -771399        -215100
   1276.00000000         297141         593578         -23126         365210
   1280.00000000         137690         385624       -1057867        -127673
   1284.00000000       -1178107       -1896996        -340875        -277257
   1288.00000000        1439350        1576228         658045        -129656
   1292.00000000       -1212707       -1349342       -1343223        -948108
   1296.00000000         207883        1079960        1447246         648776
   1300.00000000         101004          31922        -666633        -437252
   1304.00000000       -1073782        -796950       -1378687         148679
   1308.00000000         -72730        1752115         923793         333856
   1312.00000000       -1282339       -1629536       -1287949       -1244096
   1316.00000000        -732552        -158973         148179        1272345
   1320.00000000         131204         365821         789974        -914419
   1324.00000000        -789152        -484362        -183087        -425035
   1328.00000000          53789         883159        1077421        1259311
   1332.00000000         418829         -91951       -1248705       -1361411
   1336.00000000       -1554321         -77122         468253         798099
   1340.00000000        1322304         290572         116074        -495119
   1344.00000000       -1052982       -1352605        -910457        -442592
   1348.00000000         -80734         534912         489310         995897
   1352.00000000         -94483         257750         383162       -1843882
   1356.00000000       -1173081       -1602637        -242819         815559
   1360.00000000        1353823         640137         833748         187084
   1364.00000000        -905464        -814484        -784902        -463157
   1368.00000000        -795821         241004         218861         -21874
   1372.00000000         670347         706340         607183        -724414
   1376.00000000       -1054099       -1572214        -609353          99359
   1380.00000000         704925         272814         497837         396161
   1384.00000000         201396        -812284        -899376        -264851
   1388.00000000        -759599        -239331        -375222         818677
   1392.00000000         917727        1004837         677407         272242
   1396.00000000        -733856        -713201       -1200987       -1127336
   1400.00000000        -783692          38825         565466         387167
   1404.00000000         221346          43539        -674037        -772405
   1408.00000000       -1782463        -290337        -257472         278112
   1412.00000000         596275         -10219         204802        -132418
   1416.00000000        -407734          63838        -768151        -644588
   1420.00000000          70014         -84963         366225        1209171
   1424.00000000         503622         335671        -462886        -272424
   1428.00000000        -660746       -1043154         298701         313181
   1432.00000000         610947         -39265        1373208         173279
   1436.00000000        -221498        -380819        -773149        -604216
   1440.00000000        -176208        -522682        -118485         398232
   1444.00000000         166888         584488        -538525          82545
   1448.00000000        -190852       -1128915        -844494         395433
   1452.00000000         172688         336905         422023         508845
   1456.00000000        -212872       -1021404        -109781       -1331169
   1460.00000000        -607919        -286693          22961         212908
   1464.00000000         295623         599546         -51193           4738
   1468.00000000        -950388        -909245        -215487         200249
   1472.00000000        -209414        -173420         611892         467804
   1476.00000000        -540650        -536680        -376340        -329445
   1480.00000000       -1000873        -852070        -753253        -309496
   1484.00000000         398612         607519         867210         258330
   1488.00000000        -619932        -830450        -964726        -711792
   1492.00000000         153067         948135        1007569         842749
   1496.00000000         560480         339596           4910       -1069204
   1500.00000000        -465920        -252009        -208548         370030
   1504.00000000         734899         637653         141090        -483558
   1508.00000000        -622276        -720761       -1395365        -925198
   1512.00000000        -389441         460721         647463         260019
   1516.00000000        1130406         440668        -174682        -722665
   1520.00000000        -369447        -356394        -361771        -571770
   1524.00000000         656553         908680         687401         594787
   1528.00000000        -442352        -717385        -728465        -831660
   1532.00000000        -351351        -186938         339823         674571
   1536.00000000         818065         291309           9846        -446734
   1540.00000000        -120369        -537779        -307716        -475008
   1544.00000000         169974         -95514         731580        1029184
   1548.00000000         159683        -574573        -607308       -1488951
   1552.00000000        -843379        -370768        -552076         766243
   1556.00000000        1218269         188169         737467          42685
   1560.00000000        -344691        -338825        -572410        -378925
   1564.00000000         -72912        -184499         -33193         344282
   1568.00000000         721261         427655        -322318        -300446
   1572.00000000        -724838        -525378        -240213        -327012
   1576.00000000         267399         257965         211173         738355
   1580.00000000        -147907         293809        -599517         -43976
   1584.00000000        -229784       -1137759          96171         531904
   1588.00000000         694912         822120         201138         162815
   1592.00000000        -157516        -682015        -590722        -506451
   1596.00000000         -36927         152841         619308         713320
   1600.00000000         253422         287927        -123766        -441108
   1604.00000000        -223711        -327376        -271553          58498
   1608.00000000         359443         487382         728723         314314
   1612.00000000         357135        -581131        -213477        -865352
   1616.00000000        -262734        -129786         149157         159890
   1620.00000000         797506         173247        -483598        -456695
   1624.00000000        -474166        -249585         -14828        -249227
   1628.00000000         225474         756952         676775         791282
   1632.00000000          38767         390370         -84050        -799064
   1636.00000000        -835380        -436755         264198         313282
   1640.00000000         417095         241173        -443223        -124556
   1644.00000000        -713167         -72710        -761686         -52718
   1648.00000000          -7736            468        -109346         -68710
   1652.00000000        -171967         217671        -226454        -418431
   1656.00000000        -556743        -339244        -111707         299148
   1660.00000000         361007         253170         168817          24055
   1664.00000000          90495        -610657        -618980         -44233
   1668.00000000        -251993        -144935         243534         134804
   1672.00000000         -80765         118486        -159894        -131468
   1676.00000000        -594494        -371022        -174549        -239577
   1680.00000000         383563         169469         382747        -482576
   1684.00000000        -240722         146799         -51009         176049
   1688.00000000        -311983         221344        -320764        -163250
   1692.00000000         425142         -23259          41422         250943
   1696.00000000          65142        -461709        -639736        -653653
   1700.00000000        -306433         331579         660032         242640
   1704.00000000         190303        -155487        -238550        -707922
   1708.00000000         480332          43684          73830        -560875
   1712.00000000          52103         257519          53634         343939
   1716.00000000         225391        -200823        -240735        -108227
   1720.00000000          20814        -178578        -164136        -140507
   1724.00000000        -275499        -575758        -343184        -743196
   1728.00000000         -47800        -144422         410370          32453
   1732.00000000         279135        -209742         169189        -552014
   1736.00000000        -373493        -168484         195638        -283484
   1740.00000000        -247575        -392993          40551         233705
   1744.00000000          98966        -111863        -807871        -639769
   1748.00000000        -371691        -629704        -128636         330594
   1752.00000000         372469         411855        -303971            196
   1756.00000000        -311829        -144605         -96629        -472643
   1760.00000000        -110240          19839         -49728         421095
   1764.00000000         395860         437015        -222995        -357501
   1768.00000000        -235211        -267466        -158049         -80305
   1772.00000000        -253736         782169         478537         848023
   1776.00000000         202358        -295210        -362093        -678459
   1780.00000000        -479383        -548484        -153001         184097
   1784.00000000         126468         151422         545018         167472
   1788.00000000         546435        -297134        -564692        -217292
   1792.00000000        -242316         117032         460421         546653
   1796.00000000         257065         -31383         -59828          71217
   1800.00000000         157157         299413        -154911        -177912
   1804.00000000        -120966           2063         477261         275496
   1808.00000000         155075          83786        -445699        -469908
   1812.00000000         -37301        -323722         215967         536833
   1816.00000000         405773         352406         -55589        -191714
   1820.00000000        -175061          63726         389080         533700
   1824.00000000        -187679         105561        -128549         146702
   1828.00000000         -44476         -58059        -338837        -530807
   1832.00000000         126776        -197433        -167257         226894
   1836.00000000         520448          76318         210323        -218926
   1840.00000000        -846341         -85262        -150042          97713
   1844.00000000          -2486         388065        -153815         320497
   1848.00000000          65215         -30118        -762019        -383496
   1852.00000000        -297901        -258973         -89132         109072
   1856.00000000         366497         674532         -67297         -53321
   1860.00000000        -499653        -894932        -610845          -8228
   1864.00000000         355691         198443        -232009          20452
   1868.00000000         -56635        -175161         326275        -113776
   1872.00000000        -473556        -327664        -155914         204893
   1876.00000000         122250         293920         709276          -9462
   1880.00000000        -178498        -620096         -97606        -521074
   1884.00000000        -158805        -166657         -58475         444755
   1888.00000000          80343        -126013        -256996        -102113
   1892.00000000           3071        -325357          30605        -453313
   1896.00000000         135205         184580         306978         268248
   1900.00000000           9422        -384300        -158553        -197007
   1904.00000000        -320668         -99873         339315         255993
   1908.00000000         285745         531413         -68406        -320325
   1912.00000000        -296007          43642        -432438        -420144
   1916.00000000        -439491         120548           5568         185024
   1920.00000000         349022         154699          38328        -205050
   1924.00000000        -376837         -23837         102925         150097
   1928.00000000         241067         427640         285516         211256
   1932.00000000        -451110        -154599        -159755         -87555
   1936.00000000        -192267         244313         111717         219058
   1940.00000000         241826         352641         109926         280234
   1944.00000000        -263516        -751740         -58240           9029
   1948.00000000         134801         694584         453681        -131452
   1952.00000000        -250535        -302573        -349043        -313307
   1956.00000000        -152416        -269057         -34782         186759
   1960.00000000         -48586         -38948         297934        -384876
   1964.00000000        -332075        -533534        -154473         186392
   1968.00000000         200050         456185         456902         161559
   1972.00000000          87105        -162220        -203865        -591791
   1976.00000000         171719          78885          49570         430046
   1980.00000000         192544         278836         -36292        -204049
   1984.00000000        -179045          65371        -199612        -228724
   1988.00000000          23674         177375         330070         176341
   1992.00000000        -176257        -352984        -252227        -207859
   1996.00000000        -260132        -121423        -121710        -177743
   2000.00000000           9628         -26456         145388         -56515
   2004.00000000         -80939        -282597        -264873         -38594
   2008.00000000        -282112        -131016         264958          63861
   2012.00000000         124598         426120        -184920         -88675
   2016.00000000         -53402        -275120        -452791        -137181
   2020.00000000         103167        -149934         133432         154477
   2024.00000000         343420        -269708          -1675        -220912
   2028.00000000         -14366        -151531        -113844          59555
   2032.00000000         -18349         245228         209114         225330
   2036.00000000        -208421        -361134        -313653        -344523
   2040.00000000        -298767         281354         403682         347131
   2044.00000000         326400          57891        -119796         -48067
   2048.00000000         -16700          16086        -414270        -192917
   2052.00000000        -117877         -92644         416770         164850
   2056.00000000          18467          16545        -402816        -268334
   2060.00000000        -124385         121112         108666         316217
   2064.00000000         361930          79415        -245497         188558
   2068.00000000         241900        -336221        -264713        -220607
   2072.00000000        -257204         176911         263626         141662
   2076.00000000         193447        -196303        -344547        -209909
   2080.00000000         -80097         -23214         145424         -48020
   2084.00000000         287242         592601          49598        -280761
   2088.00000000        -208766        -220284         -54474        -412594
   2092.00000000        -335473          81057        -100883          26712
   2096.00000000         -55221        -188473         210954        -193456
   2100.00000000        -178525        -123435        -182673          48026
   2104.00000000         -38852         201430          46836          81932
   2108.00000000        -281723         -10146        -279286         -79365
   2112.00000000         -14245          23377        -192362         -44607
   2116.00000000         339549         133548        -174635         -81980
   2120.00000000          -4592        -270901        -179906        -177832
   2124.00000000        -185586         212200         309346          71047
   2128.00000000          14630        -310113        -495558          93595
   2132.00000000         -24928         -76569          19313         105563
   2136.00000000        -120138           5476          75454         194914
   2140.00000000         -29363         103460        -180218         -91192
   2144.00000000        -158148          23387         133252          93272
   2148.00000000         -90250        -154510         -45207        -329027
   2152.00000000        -223341          16631         102892         118020
   2156.00000000         223561         -86847         161929         248377
   2160.00000000        -153289        -374261        -118583         -43597
   2164.00000000         106346         189255         307877          81091
   2168.00000000          99634         152914         -35929        -129450
   2172.00000000        -373256        -120987         274287         209823
   2176.00000000          86992          50088         156505          45045
   2180.00000000        -203264        -177281        -246322           3943
   2184.00000000        -277326        -271061        -247592         284956
   2188.00000000         157495          89011          10843         -64667
   2192.00000000         -83318        -312614        -161921         286498
   2196.00000000         -65590          63423         -14588         -53279
   2200.00000000            -44        -218333        -107131        -139844
   2204.00000000         201204          47149         -55125         235719
   2208.00000000         -59473          91676         213857          78870
   2212.00000000        -109180         -20158        -124452        -191692
   2216.00000000        -367322         -89145         -10742         -46246
   2220.00000000         229835          17588        -125762         138261
   2224.00000000        -375786          36941          20765         118863
   2228.00000000         -89813         -21713          20685         -79058
   2232.00000000         -29067         -44206         101372         127674
   2236.00000000        -157954         -41504         -55988         152902
   2240.00000000        -122124         -23978        -257525        -127618
   2244.00000000         -93561         -84245          42301          67199
   2248.00000000         -32434          87329         108339         118154
   2252.00000000        -116664        -137829        -126581         -64755
   2256.00000000         -90882          32835         112724          85664
   2260.00000000          64891         -52977          76440         -45284
   2264.00000000         -60351          56585         -30724          18361
   2268.00000000         210638         -90114         -68704          79184
   2272.00000000         -61634          53743         -83999          80818
   2276.00000000         -12657        -197732          85092         158298
   2280.00000000         134946         113644        -105739          21083
   2284.00000000        -149402         -62200        -112259         -45799
   2288.00000000         277605         -23556          94117          -9575
   2292.00000000          23942           1825        -136417           1731
   2296.00000000         279921         142673         178478            922
   2300.00000000        -113587          92525         213600         -83201
   2304.00000000          24573           1593         -90468        -118654
   2308.00000000          11216        -111794         -77948         115572
   2312.00000000         111385         -60923        -134209         147618
   2316.00000000         -99586          69327         -58748         -95089
   2320.00000000           8158         129358          60304         238260
   2324.00000000        -222378          28057         -30446        -178848
   2328.00000000          22468         258721          48586           2669
   2332.00000000          -6294         -80951          -5614         201499
   2336.00000000        -231796          25996         198166          37185
   2340.00000000         -81890         -69665          64422          26463
   2344.00000000         -74815        -302450        -276833         -59721
   2348.00000000          55827        -156871          64463         -22337
   2352.00000000         168005         -13515         -22738         -45066
   2356.00000000        -160757        -157770          71989        -245896
   2360.00000000          77510          37876         228071        -150293
   2364.00000000          44511           8004         -16325          81530
   2368.00000000        -187269        -118020        -236679        -146262
   2372.00000000          16011         -73227          53638         -62128
   2376.00000000         -27206        -178604          40494         127564
   2380.00000000        -130883        -250087          77240           1837
   2384.00000000          60130         288486        -166529         -60740
   2388.00000000        -155037        -138196         -40468           2374
   2392.00000000          30670          23769         -14867         149916
   2396.00000000        -220721        -144157        -153825           5882
   2400.00000000         -20520         127478          69602         137341
   2404.00000000          87242          10302          31520         103136
   2408.00000000         -21320         -94943          65943         163483
   2412.00000000        -108723         -16532          -9211         165019
   2416.00000000         188492           7977          45816          19541
   2420.00000000        -104850         129308        -184486        -117326
   2424.00000000          14341         197594        -138258         -72231
   2428.00000000         -68268        -108788         -64935          16925
   2432.00000000          66598         -92444         -21847          25701
   2436.00000000          18554          32094        -122134         -95139
   2440.00000000         -81451        -151967         -71816         185210
   2444.00000000         118221          13497         199998          74796
   2448.00000000         -98060         -29854          19634         -97189
   2452.00000000          13252        -142320          60336        -150498
   2456.00000000          -3703         161375          42820         -87449
   2460.00000000        -136916         -61988        -117311         -74449
   2464.00000000         -33663         100883         -86957         -71864
   2468.00000000         -87000         122026          31893          17081
   2472.00000000         -31739          41357          36615         -43542
   2476.00000000          83488         119647         -25282          42569
   2480.00000000          77829         -64804         -43727        -191414
   2484.00000000        -102870         -47293          96469          61135
   2488.00000000         151888         -68041         -74112          54038
   2492.00000000         102568         -72848         -69087        -115712
   2496.00000000         -12798          25973         -32669         113526
   2500.00000000          38894         168227         -15096         -99849
   2504.00000000        -137367         142602          42555         121658
   2508.00000000         277847          96426        -104569         -99327
   2512.00000000        -158937         105418          53870          28570
   2516.00000000         130567         -56325         128564         -68080
   2520.00000000          61143         -81603         -72011          15888
   2524.00000000        -151695         -95071          35652         -32411
   2528.00000000         106255           9706         -69673          24471
   2532.00000000         -47471          24893         -23252         184831
   2536.00000000         120344         -30777           6764        -101572
   2540.00000000          60326         215224         -46735          88995
   2544.00000000        -243824        -147359        -100955          -1945
   2548.00000000          74799         110406         227969          50591
   2552.00000000          76264        -141432        -209320        -101252
   2556.00000000          71526         -93989         -67414         -35938
   2560.00000000          81370        -134586          41236         -35710
   2564.00000000            952         -33490         -54468          27989
   2568.00000000         -25523        -202927         109526          93066
   2572.00000000         -83581         100411         105158        -133251
   2576.00000000          -4856         155181        -121961          32570
   2580.00000000          12229         -20254        -110171          32834
   2584.00000000        -124072        -117828          30522           3563
   2588.00000000         -97741          10823          65296          48752
   2592.00000000          56415          27817         -33822         -64912
   2596.00000000         200623          77377          97555           7141
   2600.00000000         131221          -3318          -7255         -75893
   2604.00000000          67377          24929         -32636         102913
   2608.00000000          48779         -53334         -42111         -68082
   2612.00000000          87314          34038         125270         191266
   2616.00000000         -10861          80754         -46226          91957
   2620.00000000        -143859          23479         -21101          -7446
   2624.00000000         126706         -93863          57231         115547
   2628.00000000          -5210         -89641          60123          18652
   2632.00000000         -28033        -134067         -93081         -37402
   2636.00000000          46718          -8878          24081          57050
   2640.00000000          49892         -12174        -177195          59992
   2644.00000000        -122830         -70914         -70693         -44447
   2648.00000000         108271         158615         -19752         -36657
   2652.00000000          58190           8148         -23684          86653
   2656.00000000          42287         -46882         -14970          38666
   2660.00000000          18960        -109224            630          36391
   2664.00000000         103044          57884          17251         -45751
   2668.00000000          70840          56207          72378         -75209
   2672.00000000          23014          29369          -8418         -20836
   2676.00000000        -133147         -22063        -138041          66370
   2680.00000000          98042         -19262         107905          41302
   2684.00000000         -69219         -18110         -62173         122314
   2688.00000000          54152         -44084          48388        -102435
   2692.00000000          65444          -4167         -27566         -85326
   2696.00000000         -22029         -52652          -9146          58120
   2700.00000000          30933          26424          24029        -130776
   2704.00000000         -28917        -114968          -1235        -130934
   2708.00000000          18311        -117130        -168772          38384
   2712.00000000        -119848         110846          13026          62261
   2716.00000000           2731         -69154           -603          10498
   2720.00000000         210509         -34096         107848         -35335
   2724.00000000        -133398          35328         -59621         -28480
   2728.00000000         126861          -4954          95173          22635
   2732.00000000         -78668          40192         -13567         -91686
   2736.00000000        -137818         -88656          45365          71295
   2740.00000000         -41316         -14412          32246          10074
   2744.00000000         -84191         -10837         -51375        -101705
   2748.00000000          19106         -58242          -5455          48784
   2752.00000000         -60422         -69211        -140705         -19491
   2756.00000000          45193         -36193          46596          21709
   2760.00000000         -55420          -6407         -53140          11782
   2764.00000000         -58811         -17385         -41849          -3869
   2768.00000000          15828          79807         -17315         -31146
   2772.00000000         -31918           5473         -60815           6015
   2776.00000000          49250         -99579          23145          46289
   2780.00000000         -27561         -27802         -55584          24996
   2784.00000000          -7390          23450        -114929         -38404
   2788.00000000          -2911         -61356           9959          38179
   2792.00000000          37904         -17847           -334          75976
   2796.00000000          52966          -7435          30667          -1430
   2800.00000000         151437         -64009         141839          56167
   2804.00000000          32858         -15902         139851         -75772
   2808.00000000        -107367          69656        -114978         -68882
   2812.00000000         -95245          37050         -72247          80666
   2816.00000000         -71198          15556         -60081         -68439
   2820.00000000         -18806          87711          28276         -43341
   2824.00000000         -10623          32988        -116120         -78434
   2828.00000000          12734          63889          -5255         -50562
   2832.00000000         -36510          -8584          65167          -2014
   2836.00000000          11124          58778          51615           3197
   2840.00000000          22818         -73797        -113748          22140
   2844.00000000          82797        -107209         -16937         -55610
   2848.00000000         -92968           3570         -66005          60875
   2852.00000000         103046          22970         -76868          63980
   2856.00000000         -14682         -23446          57209          32211
   2860.00000000          -6634          -6018          10231          88024
   2864.00000000         -22662          13490          32703          67094
   2868.00000000         -17009         -24900         -30951         -33021
   2872.00000000           6182        -121198         -89217          21444
   2876.00000000         -30307          79127        -185749          80602
   2880.00000000            704           1806           2163          82180
   2884.00000000          38631          34739          95021          42915
   2888.00000000         -26700         -12002         -42095          16690
   2892.00000000         -37555          41049         -37792         -90646
   2896.00000000         -99722          -7454          13298         -27299
   2900.00000000           4150          40932         -59702          17394
   2904.00000000         -24928          -4662         -28960          30695
   2908.00000000         -11353          51467         -39290         -34529
   2912.00000000          22645         -70974          -4318         -73115
   2916.00000000         -33751         -14598          -2257          43205
   2920.00000000          11661         -29665         -67537         -18650
   2924.00000000         -72901        -127623          42717         -22418
   2928.00000000         -49807            507          -5650         -49407
   2932.00000000         -90289        -138872          60335          52148
   2936.00000000          16913         -67927          92593           7450
   2940.00000000          -3543         -56778          29405         -35294
   2944.00000000          32798         -10819         -20587         -48501
   2948.00000000          -8200          59079          36108         -46790
   2952.00000000         -34601        -145390          51840         -16760
   2956.00000000          73551          73671         -36732          25378
   2960.00000000          28772          -1018          26065          58048
   2964.00000000          28495         -43865         -62708         -58654
   2968.00000000          -4744          33091         -63258          91033
   2972.00000000        -100131          -9248           3631         -50970
   2976.00000000          25843          39319         -17702         -30689
   2980.00000000         -42676         -61487         -39345          37820
   2984.00000000           2493          49485         -44149         -57957
   2988.00000000          96294         -29501         -55252         -93022
   2992.00000000          66633          39195         -65832          81302
   2996.00000000          31334         -14689          10792          52665
   3000.00000000          64734          68470          14007          50713
   3004.00000000           2158          10870          -7322          15453
   3008.00000000          10991          50130         -12716         -50690
   3012.00000000         -18802          82257         -39447         -75798
   3016.00000000          66405          59495         -35001         -17094
   3020.00000000          98514         -68979          53012         -10521
   3024.00000000          25537         -44265          18069         -77947
   3028.00000000          82410          -2620          16503         -33426
   3032.00000000          56101         -58217          -8670         -81192
   3036.00000000         -10872         -32717        -115516           2255
   3040.00000000          71789          -4733          -7436         -19145
   3044.00000000          -4725          17920         -83876         -52257
   3048.00000000          33923          39791          -8790           5845
   3052.00000000         -76186          15579          72459          35367
   3056.00000000          43215          30678         -99340           8232
   3060.00000000         -71493         -26376          54056         -83517
   3064.00000000          58713          26278         -43330         -20819
   3068.00000000          77077          -2155           -929          49121
   3072.00000000          31956          -7174         -26238         -55861
   3076.00000000         -22623           6100          12821          -9995
   3080.00000000         -27702         -25960          21552         -40942
   3084.00000000          39802          28734          23954         -36417
   3088.00000000         -19594          53751          -8018          26302
   3092.00000000         -24144          47579          -7989          40059
   3096.00000000          11083         -53773          11487         -27882
   3100.00000000          42644          49158           9122          85668
   3104.00000000         -52940          26930          10955         -49354
   3108.00000000          28724          -3823          52172          16788
   3112.00000000         -36052          52932          36635          35527
   3116.00000000         -25602          26061          21499         -31647
   3120.00000000         105029         -23700          27387          17494
   3124.00000000         -75779           -881          25241          25151
   3128.00000000           6202         -30019          20976         -36869
   3132.00000000         -70733         -42708         -11691         -19356
   3136.00000000         -10896         -67207         -10991           4873
   3140.00000000         -24573         -11211           -793          10647
   3144.00000000          -6032          35505          23209          20014
   3148.00000000          23022          -1412         -25363         -52020
   3152.00000000          17803          25920          -7471          32551
   3156.00000000          47457          10816         -12776           9706
   3160.00000000          60572           1920         -49858          -4448
   3164.00000000          -1701         -45790         -34480          -2068
   3168.00000000          86402         -68833           8639         -26776
   3172.00000000         -65371          28051          41947         100531
   3176.00000000          21210         -15619         -13754          13924
   3180.00000000          28817           2939           1310         -49731
   3184.00000000          31794         -10192         -67104          -9103
   3188.00000000         -47989          29549          -7019          48650
   3192.00000000          -6962         -58985         -77043         -38518
   3196.00000000         -28048          14213          -8609          65132
   3200.00000000         -11976         -29942         -72361         -16067
   3204.00000000          28048         -15253          96175         -75695
   3208.00000000          53256         -11206         -14319         -12439
   3212.00000000         -19424          15164           7925         -11530
   3216.00000000         -20352         -56818          32653         -21343
   3220.00000000         -57320          18892          10530         -13935
   3224.00000000         -77079          12686         125607         -37455
   3228.00000000         -92375         -53750         -65805         -50366
   3232.00000000          14452          20358          -7163         -25080
   3236.00000000         -11886          47245         -18243          -5881
   3240.00000000           6717         -38123          18180          13480
   3244.00000000           -844          -4908         -29797         -82316
   3248.00000000         -66220         -21701          12451         -38529
   3252.00000000          -7117          36606         -19601          17026
   3256.00000000          -9159         -25704          40099         -30527
   3260.00000000         -49504         -12989          -2410          30000
   3264.00000000            -49          -2557          51437         -13261
   3268.00000000         -35305           2854           2923         -62549
   3272.00000000           8202          32744          -3113          53755
   3276.00000000          -1233          11970          14558         -14194
   3280.00000000         -29562          44464         -18292         -32131
   3284.00000000          34548           3144          -1842         -71084
   3288.00000000         -84193          -2874         -82992          29890
   3292.00000000          39987         -23484         -80426         -14527
   3296.00000000          27744          23628           3185         -74328
   3300.00000000         -33002          68791          55807         -11083
   3304.00000000           4229         -36525           3342          -3220
   3308.00000000          10399         -87626         -34571         -72289
   3312.00000000         -79948           1056           4096         -22493
   3316.00000000         -51473         -31560          -4089          -7404
   3320.00000000          12757          43353         -14965         -39811
   3324.00000000         -10625         -49526          26352          12080
   3328.00000000          37118           3742         -14682           5455
   3332.00000000          25715         -63046         -26909          79155
   3336.00000000          36686           4044          29138         -34424
   3340.00000000          37651          14513         -41027          16154
   3344.00000000          13639         -15938         -11348         -12049
   3348.00000000         -38297         -26706           9190         -14634
   3352.00000000           4268          19313          -4385         -14601
   3356.00000000          -2349         -54186          16232          12927
   3360.00000000          46422         -20502         -40137          17607
   3364.00000000         -15990         -14619         -10445          -5237
   3368.00000000          -2071          -4114          -5371         -21300
   3372.00000000          24530         -10997          13985          40953
   3376.00000000         -16132          24214         -22040          41847
   3380.00000000          11207           -934          12753          37971
   3384.00000000           7299          -6761          25518          -8656
   3388.00000000         -30006          -4989         -59665         -38094
   3392.00000000         -59463          26295          -9108          -1564
   3396.00000000          12194         -43904         -19481          20164
   3400.00000000         -15394          -4887         -35446          21495
   3404.00000000          45608          32442         -10510           6242
   3408.00000000         105876         -42345          13357         -12237
   3412.00000000          54206         -28905           6099         -36985
   3416.00000000            551           7523           4937          26772
   3420.00000000          30100           3593         -19289          -7441
   3424.00000000          -7745            656         -69708          50999
   3428.00000000          -4608          56511         -64303          -1785
   3432.00000000         -18190           6581           2262         -12845
   3436.00000000          30619          32840          22524         -14268
   3440.00000000         -18115          45889         -14486         -14583
   3444.00000000         -26241         -16183           -769          22397
   3448.00000000         -29797          42450         -19992          20066
   3452.00000000           7217          12025          25623         -15634
   3456.00000000         -27641         -10685           7117          20216
   3460.00000000           2474         -44977          16620          -1873
   3464.00000000          62573          14057         -27240         -11934
   3468.00000000         -20491          -5990          40073          -4927
   3472.00000000         -69305          33875          10404           7883
   3476.00000000          -1923          29871            384          31144
   3480.00000000          17508         -16168         -25718         -11377
   3484.00000000           5593         -53947          23060         -28440
   3488.00000000         -25763         -17150         -30834         -11853
   3492.00000000          41916          -5111         -11581         -19342
   3496.00000000          -2672         -16700         -37448         -24437
   3500.00000000         -33430          20869          -3609         -18475
   3504.00000000          -9294          -6777         -27779          -4434
   3508.00000000         -12033          17229          -4506         -19419
   3512.00000000          -8711           7734          20599           8674
   3516.00000000          -3380         -23543          10005         -21836
   3520.00000000         -10078         -12944         -14412          24488
   3524.00000000         -15088          -5175         -11957          -4230
   3528.00000000          33071         -63201          21034          15743
   3532.00000000         -14701           4035         -38137            291
   3536.00000000           5924           4273          30202         -13140
   3540.00000000          12961         -19327         -23416         -21087
   3544.00000000          -7827          -9826         -13121          -4335
   3548.00000000         -16495          19096           -497          -7034
   3552.00000000          -4219         -20604          14553           6203
   3556.00000000          -7593          52480         -10361          -1638
   3560.00000000          40311          15793          23094         -11737
   3564.00000000           1530          -6394           -178          -1882
   3568.00000000           3021          22412          -3252           9675
   3572.00000000         -35473          13001         -13665         -26928
   3576.00000000           4349          -1139          -2571           7265
   3580.00000000          -7365           5402         -30533         -13632
   3584.00000000         -16841         -28336         -25412          22338
   3588.00000000          21779         -17691         -23167           1557
   3592.00000000          26880         -33380         -28357         -44483
   3596.00000000          -9582          11434         -26888           4048
   3600.00000000           2275          -8243         -27530          -4767
   3604.00000000           8696           1901           9674         -24682
   3608.00000000         -15073          -4599          34371         -26228
   3612.00000000         -55001          15993          50741            362
   3616.00000000           2133         -32873           8341          10458
   3620.00000000         -44585           6234         -11952         -13329
   3624.00000000          16255         -30355         -16991           -641
   3628.00000000         -58515          27557          39649          21815
   3632.00000000          37136         -15786         -27518          -6727
   3636.00000000          -7213           9513         -13289         -33544
   3640.00000000         -19307         -12699         -20574          -4029
   3644.00000000         -15690           5127          25699         -18693
   3648.00000000          16434         -21275           2313          31612
   3652.00000000          16419            884           4363         -29872
   3656.00000000          23406           8836         -35067          18130
   3660.00000000         -31418           5588          21806           8709
   3664.00000000          14114         -14191         -12666           5899
   3668.00000000         -14080         -45379         -13166         -24641
   3672.00000000          -5922          -6515          12722          35476
   3676.00000000         -23324          31413         -10082         -26655
   3680.00000000           2122         -38055           2871           2254
   3684.00000000           8104          24085          41658         -45974
   3688.00000000          10216           1839          10954          23116
   3692.00000000         -26879         -17720         -19637          -6106
   3696.00000000          -3697          24156         -11956          -6040
   3700.00000000          10843           9188         -10838           7513
   3704.00000000         -20948         -45873          -8709          32534
   3708.00000000          29262          10615          -3945          -5230
   3712.00000000           5254          -6858         -10332          21869
   3716.00000000          11601           5323         -27249         -11973
   3720.00000000         -18059         -30600          -9150           9741
   3724.00000000          32058         -23177         -43191          24860
   3728.00000000           8491          19420         -14854           6060
   3732.00000000         -42839          15082         -14182         -10201
   3736.00000000          25809           -154         -22215         -11447
   3740.00000000           7829         -23403            871           6385
   3744.00000000          21101          -7813         -26316         -18190
   3748.00000000           1993         -15429          19855          22220
   3752.00000000          14191         -18838         -28644           -709
   3756.00000000          15229         -20168         -16966          -1323
   3760.00000000          -6225          22581          18241         -22396
   3764.00000000          21577           1985          -7914         -33599
   3768.00000000          -1455         -17358          -4221          -3067
   3772.00000000         -20290         -18117          17420          -9534
   3776.00000000          25407           9642           3003         -32200
   3780.00000000         -37993          12266          -3351          13863
   3784.00000000           7862           3844           8988          -2962
   3788.00000000         -14017          -3022          32774         -22290
   3792.00000000          -7873          36319           7242         -10638
   3796.00000000          -7601          25693          12067         -17793
   3800.00000000         -16866           -811          -1715          -2248
   3804.00000000           2080          -8462          13038           -443
   3808.00000000           3714         -21616         -30478         -21845
   3812.00000000         -23771           3589          -4118          24150
   3816.00000000          -6298          -7694          37083          14596
   3820.00000000           9647           2187           5178         -18398
   3824.00000000          12291           6191         -21578         -14519
   3828.00000000          -4331          -1476         -17331          -9570
   3832.00000000           5830         -23798          22388          -8230
   3836.00000000          33142         -43512          37396          19650
   3840.00000000          -1555         -23007          -3674          -9805
   3844.00000000          10808           7206         -18094         -10093
   3848.00000000         -37867         -11418          15210          20061
   3852.00000000          18261          -6340         -14344         -16635
   3856.00000000          -6708          -4957          17735           5215
   3860.00000000         -43179           7239         -12984          -9986
   3864.00000000           5487             83          -5041           -385
   3868.00000000           1991           -194           1871           5964
   3872.00000000          15215         -15066          -1892           -206
   3876.00000000           2533          -2767            191          12623
   3880.00000000           1145           7780          15740          -6798
   3884.00000000          -2929         -11781           8592           1507
   3888.00000000           5338          18598         -21101           9687
   3892.00000000            299          -1818          -4374         -15385
   3896.00000000          11141         -13764           1534         -29736
   3900.00000000         -10518           7337          -3257          -6704
   3904.00000000         -22777           6936         -23831         -32898
   3908.00000000          -3064         -16010          -7374         -14028
   3912.00000000            979         -32501          10370           -959
   3916.00000000          -8594         -10433          -8514           7014
   3920.00000000         -14606           6067         -13091         -21405
   3924.00000000           7917            711         -34706          -8433
   3928.00000000           9086         -32103         -21463         -15402
   3932.00000000         -12495           1278          -8595           5614
   3936.00000000         -14238         -22603          -9722          -2225
   3940.00000000         -18204           7581          -1959         -21481
   3944.00000000          -6393         -17387            205         -12796
   3948.00000000         -14186           6674         -11739          -6666
   3952.00000000          -1513         -36037         -12286          -3811
   3956.00000000          11160          -8712          14388         -15278
   3960.00000000          21616          -3573          -3098            922
   3964.00000000          -5657          -8680         -14154         -12809
   3968.00000000           3983          -9394          -1207          -6346
   3972.00000000         -28091          -5913         -20370           -813
   3976.00000000          -8730          -2700          23721         -11737
   3980.00000000          -4814           -454          29891          -3597
   3984.00000000           1832          -6577         -15436         -18349
   3988.00000000         -15958         -23845         -14021          11661
   3992.00000000          -8034         -16921          -6649          -8849
   3996.00000000          13720           9835          -3763           8758
   4000.00000000           1095          14580         -11244          11017
   4004.00000000         -19274           5159          -5468         -13123
   4008.00000000          -1278          -3712          -4188          -2253
   4012.00000000         -16219          -1949         -28091          -5477
   4016.00000000          15074          -7065          -3000          -8817
   4020.00000000          34044         -11064          11618          -3619
   4024.00000000           3031          -7081           3394          -8065
   4028.00000000           -932           5368           5235          -8630
   4032.00000000          -8807          -5266          -4499            921
   4036.00000000         -17509           8566           5779          10111
   4040.00000000          -4014           4799         -12152            525
   4044.00000000           5706         -40776          10183          -1539
   4048.00000000         -23783          10511          -1301          12901
   4052.00000000          10618         -11181          11930           8886
   4056.00000000          10885            -24           6622          -4496
   4060.00000000          12116         -12335          15743         -17476
   4064.00000000          -7240         -13761          12231         -23798
   4068.00000000           5726          -1556           6397         -22879
   4072.00000000         -22849         -26738          21054          10151
   4076.00000000           1728         -19597         -16155          22045
   4080.00000000           8546          -1409          -6279         -11611
   4084.00000000          -9300         -16724          12601          -3527
   4088.00000000          -8077          -1597           8464         -15716
   4092.00000000         -35330          16008           9073           -926
   4096.00000000          16751         -26905          -8907         -14359
   4100.00000000          -5661         -13999         -42402           7014
   4104.00000000          -6141          -5891          -1052          -6502
   4108.00000000         -28148          -8407           1894         -19125
   4112.00000000          -1132          14739         -12560           4551
   4116.00000000           4882           2730          -5613           3324
   4120.00000000           8851          13957            840           -333
   4124.00000000           9776         -13616         -10150          20278
   4128.00000000          -9491         -13269         -12799           3409
   4132.00000000           2606            710         -22625          -5106
   4136.00000000         -17316          -7549          15182          11258
   4140.00000000           3814          -1366            910         -12779
   4144.00000000          -4654         -24044           -213         -11702
   4148.00000000          -3437           3909          -8289         -16007
   4152.00000000          -1873           3876          -5566          -4531
   4156.00000000         -36825         -26276          17274           1111
   4160.00000000         -23654           3514         -13411           7040
   4164.00000000         -14057         -14328          -3360         -11705
   4168.00000000          18930         -12874          -2959           2180
   4172.00000000          -1630          -8075          -6510          -6301
   4176.00000000          -3977         -10243          -8896           8617
   4180.00000000          12929          -1515          -6938          -8103
   4184.00000000          -2292           4510          -1056           8413
   4188.00000000           7001           -236         -15526           -130
   4192.00000000           1918           2719          -4598         -13945
   4196.00000000          -3562          -6561         -11799          -3623
   4200.00000000           -496          -7815         -11233          12699
   4204.00000000           -361         -10505         -11721           8968
   4208.00000000         -11274          -6640           2126         -13828
   4212.00000000           5711           6936          -4009           1898
   4216.00000000           1762         -15402          -8795          -7271
   4220.00000000          11323           8105          -8346         -12533
   4224.00000000          -7772         -22389          18126         -10489
   4228.00000000           5967           4439          -4247          -1665
   4232.00000000         -15298           8881          -3490          14977
   4236.00000000          -2493         -14088          -4031           9108
   4240.00000000          14688          13713          -1589           7903
   4244.00000000          -9746          -7934         -18325          -4398
   4248.00000000         -11457          -2439         -23710          -1655
   4252.00000000          -4141          -7125            335           -259
   4256.00000000           4802           9386           6216           2058
   4260.00000000         -11226          -5087           -112         -12995
   4264.00000000           1312            872         -21763          -3854
   4268.00000000           -458          -7133          -2861          -8074
   4272.00000000           7677          -2396          -9192           6410
   4276.00000000          -5737             86          -4116         -11690
   4280.00000000          -5863          -3577         -10173          -9465
   4284.00000000          -3021           6509           6398           5153
   4288.00000000            453          -8537          -2107           4575
   4292.00000000           7221            454           1554          -8176
   4296.00000000          -4124          -3448         -12602          -3701
   4300.00000000           1497          -2843            -28           5041
   4304.00000000            618          -6190           5510             24
   4308.00000000            332         -17350           8745           7155
   4312.00000000          -5742         -16863          -8763         -11303
   4316.00000000          -9816          13321          -2948           9947
   4320.00000000          19237           6385          -1894           8321
   4324.00000000          -8338         -10944           3032          -5668
   4328.00000000            945           4160            785          10445
   4332.00000000          -3136           2575         -10814           4062
   4336.00000000          -4938          11467           -663           -190
   4340.00000000           3796           1000            311          -1096
   4344.00000000          -1624           4653          -3930           4792
   4348.00000000         -14649           -595           2332          -1562
   4352.00000000          -9455           3048          -9185         -12660
   4356.00000000           -132          -6196          -2521         -10227
   4360.00000000           4914         -10987          -1931          -6451
   4364.00000000           2987           8890         -12600          -9901
   4368.00000000          -7953           5837          -1606          15465
   4372.00000000         -13324          11316           2344           2328
   4376.00000000           1140          -1891          -1638          -1804
   4380.00000000          -7121         -12614           5087          -4935
   4384.00000000          -2310          -5147           5889          -9310
   4388.00000000           4357          -3167           -347          -9204
   4392.00000000           2193          -7939          -1769          -5619
   4396.00000000           2948           7215          -6610         -16064
   4400.00000000          -7544            764          -1505         -10820
   4404.00000000           1159          23484           3092          -8925
   4408.00000000           2804          -5164         -12069          13230
   4412.00000000          -3659          -7597         -14667           -238
   4416.00000000           5476         -16294         -14405           2139
   4420.00000000           5574           1506          -1960           1435
   4424.00000000           -640           -788          -3309          -4317
   4428.00000000           4552          -5135         -11402         -11362
   4432.00000000          -8857           3395          -1965          -5058
   4436.00000000         -12814         -11039         -14333          -1724
   4440.00000000          13254           3906           2998          -3424
   4444.00000000           8387         -15614           8109           2293
   4448.00000000          -9301            807           5283           2312
   4452.00000000         -15623          -1171           3731          -1535
   4456.00000000          -4030         -10859          -4024          -2390
   4460.00000000          -7538         -11012           3645          13340
   4464.00000000           1821          -5089         -10346         -12839
   4468.00000000         -10520          -9030          -5661          -5763
   4472.00000000          -7207          -9933           5719          -6112
   4476.00000000          -5842           -632          -5480          -4611
   4480.00000000          -3017          -5095          11001           3580
   4484.00000000          -6714            331          -3531         -14029
   4488.00000000         -18743         -15577          -5558          -2778
   4492.00000000         -15018          -8112          -3954          -8417
   4496.00000000           3841             26          -3460          -6518
   4500.00000000            745          -4143          -5147          -4143
   4504.00000000          -6261          -1446          10809         -11317
   4508.00000000           -990          -4527           4983          -2495
   4512.00000000          14822           -973          16642          -2442
   4516.00000000           5682            -17         -11004          -8790
   4520.00000000         -12915           5804         -13111          -6928
   4524.00000000          -9162          -1580          -4489          -6855
   4528.00000000           2496            -82           1606          -9545
   4532.00000000           9708          -2881           6019          -1013
   4536.00000000          -5272         -13016          -5498           1840
   4540.00000000          -3089          -5859          -6104           1457
   4544.00000000          -1366          -5937         -12694          -2005
   4548.00000000           7931          -5246           8505          -7912
   4552.00000000           7529           3986         -11925          -6836
   4556.00000000          11816           2231            617          -1736
   4560.00000000          -1547          -6440           3502          -8281
   4564.00000000          -3314          -6315            -53          -1025
   4568.00000000          -4342          -9245           1792          -8377
   4572.00000000           -702            -39          -3663           2861
   4576.00000000           -390           2864          -7504           1707
   4580.00000000           7784          -8300           8836           -490
   4584.00000000           2470           -306          -2992            683
   4588.00000000          -3445          -4038           3776           2589
   4592.00000000          -8477           6326          -6375           7304
   4596.00000000            429          -5065            -23          -6081
   4600.00000000            351           5707          -7948           7641
   4604.00000000           8149          -4956           4867           3594
   4608.00000000          -2279            533           2728          -2066
   4612.00000000           2097           6433          -1568          -3551
   4616.00000000          -3692           1823          -3739           2226
   4620.00000000         -13173           1008           2093          -4214
   4624.00000000          -5997          -6622            323           7046
   4628.00000000          -5922          -2589            -18          -5908
   4632.00000000          -1500          -8450           1665            396
   4636.00000000           1762          -1753            894           1267
   4640.00000000          -5581           -643           5450         -16480
   4644.00000000          -2203           2768          -1721         -13823
   4648.00000000            129          -8496          -1485          -6433
   4652.00000000           4021           4848            249          -3351
   4656.00000000            114          12695            189          -3463
   4660.00000000          -5517            627          -1012          -2391
   4664.00000000           3022           9626          -1789           2745
   4668.00000000           -306          -4580          -7462           4186
   4672.00000000          -4176          -9801           -543          -1139
   4676.00000000           4830          -2374          -7799          -5113
   4680.00000000          -5234           -949           7423          -7158
   4684.00000000           5238            690           4767         -11171
   4688.00000000           2830            870          -3970           2597
   4692.00000000          -8853           5502          -6740           6144
   4696.00000000         -11708          -4236          -7465           5457
   4700.00000000           5628          -7569         -12472          -1243
   4704.00000000          -8864          -1139          -2157          -5482
   4708.00000000            511          -3731         -10715         -14773
   4712.00000000           1196          -4741           -652            757
   4716.00000000          -6766          -3160          -5199          -6612
   4720.00000000           1427         -12868          -5062          -2655
   4724.00000000          -8148          -1906           -779           4575
   4728.00000000             48            616            888            215
   4732.00000000           1763           4065          -3551          -5500
   4736.00000000          -1959           -489          -4850          -8301
   4740.00000000           1757          -3791           2116          -5094
   4744.00000000            546            862          -2540           -175
   4748.00000000           4756           6428           2277           2141
   4752.00000000          -4323          -4884           -401          -8578
   4756.00000000          -9974          -3249           4040           3765
   4760.00000000           5393           1311          -4873           1792
   4764.00000000           2106          -3130          -1329          -5598
   4768.00000000           2324           2703          -6459          -2958
   4772.00000000         -12758           -688          -3225          -4914
   4776.00000000          -5165          -7888          -5556           1848
   4780.00000000          -3855           -734          -7853           -672
   4784.00000000          -4425          -6295          -6030           5171
   4788.00000000          -3370           2366          -1653           -675
   4792.00000000           1282          -6310           2550           2229
   4796.00000000           -912           5527            185           1445
   4800.00000000           -485          -2454          -3179          -1063
   4804.00000000          -8102           2754          -4889          -2572
   4808.00000000           1066            161          -5907            549
   4812.00000000             24          -9052           2421           -571
   4816.00000000          -5006          -4223          -5305          -6537
   4820.00000000            754           6647           4378           6237
   4824.00000000          -3479          -3226           -264          -1226
   4828.00000000           2215           4288          -6577           2416
   4832.00000000          -6883           -993          -3694           3007
   4836.00000000          -6357          -8824           -353           1369
   4840.00000000           -959          -3981            689          -3722
   4844.00000000           4633           2193           -867          -3230
   4848.00000000          -2333          -6274          -7945           4313
   4852.00000000              0          -3372          -6108          -5148
   4856.00000000           -184          -2388          -1370           4151
   4860.00000000            309          -9158          -6165           1119
   4864.00000000          -3020          -8322           -834            835
   4868.00000000           2571            828          -1297           3230
   4872.00000000          -3685           8388          -5661            503
   4876.00000000          -3075           -674          -3456          -1109
   4880.00000000           2800           1591            -24           -127
   4884.00000000           3826          -3581          -9178          -1792
   4888.00000000          -1900           2393          -4344          -3045
   4892.00000000          -4383           2115          -6745           2645
   4896.00000000          -2515           4769            989           1500
   4900.00000000           2494           2978          -1479           4490
   4904.00000000          -1104          -1255           3296           2879
   4908.00000000           -396          -9123         -11768         -10809
   4912.00000000           1318          -3614          -2417           -103
   4916.00000000            344          -3380          -7371            573
   4920.00000000            -20           1824          -3201          -4974
   4924.00000000           -927           4511          -1240          -4271
   4928.00000000           8170           -930            -38           2933
   4932.00000000          -1284          -2884           -125          -5589
   4936.00000000          -3841           6937           -421             94
   4940.00000000          -5868           5860          -2275           4532
   4944.00000000           2240           2577          -2312           4922
   4948.00000000          -1713           3890             58           -627
   4952.00000000          -1037          -5371          -4475          -7138
   4956.00000000           1816          -1233          -1885           -584
   4960.00000000          -4893            731           2759           3266
   4964.00000000          -2261          -3003           4821           -347
   4968.00000000           -186          -9439           2304          -3671
   4972.00000000          -2814           3151          -3020           1294
   4976.00000000           -589            330          -3784          -5902
   4980.00000000           -594           -481          -2118          -1202
   4984.00000000          -6155           -192          -3626           -964
   4988.00000000           1298           -634           1528           -943
   4992.00000000          -1084          -1460          -4278           -321
   4996.00000000           -995           5680          -3195          -2683
   5000.00000000           -519           -153          -3687           -506
   5004.00000000          -1078           1899          -3601          -5353
   5008.00000000           5507           3073           -895          -4253
   5012.00000000           -261          -1860          -2741          -1677
   5016.00000000          -4461           2934          -2668           -226
   5020.00000000          -3652          -2070          -5722            695
   5024.00000000          -2559          -2250          -4396          -2840
   5028.00000000           2398           1688          -3115           -688
   5032.00000000          -9921            799           5293            226
   5036.00000000           1886           3689           -996           1615
   5040.00000000          -7634            -54           -739           2436
   5044.00000000           1995            592          -2985           2156
   5048.00000000           2825            849          -5328           -399
   5052.00000000           -840          -1401             11          -5556
   5056.00000000          -4495           1306          -1212           2912
   5060.00000000           1921           3884          -2998          -1707
   5064.00000000          -2625           1447           -931          -3431
   5068.00000000            376          -1253           1778           2294
   5072.00000000           1612            134           1019          -2198
   5076.00000000          -1294          -2992           -261          -1161
   5080.00000000            970           3546           5066          -5265
   5084.00000000          -4149           1554          -5277          -2670
   5088.00000000           -945           1281           -290          -1678
   5092.00000000          -2031            168          -1429          -2248
   5096.00000000          -3296           3986            910          -1554
   5100.00000000          -1316           -352          -8700          -3806
   5104.00000000          -1208          -3389           1110           2527
   5108.00000000           1170          -1737          -4900           3165
   5112.00000000           2212           -878           -664          -2900
   5116.00000000           3957           6033            271           1625
   5120.00000000           1278          -2753          -2874          -1759
   5124.00000000          -1345           2102           -403          -4431
   5128.00000000          -1640           5163          -1348          -3401
   5132.00000000           4356          -1282          -7781           -220
   5136.00000000           1000            856          -5825           1546
   5140.00000000           -556           -227          -3368          -3595
   5144.00000000           3267           2710           2241           -884
   5148.00000000             99           -626          -5494          -5495
   5152.00000000            -11           2357          -2965            -19
   5156.00000000          -5791           1040           -979          -3279
   5160.00000000           5209          -3473          -3759          -2756
   5164.00000000          -1262           -658          -1577           -883
   5168.00000000           3483          -7567            293          -1692
   5172.00000000             61           1748          -4733          -1406
   5176.00000000           -424            -95          -3775          -2931
   5180.00000000           -619          -2225            310           2934
   5184.00000000          -3330            338          -5236          -2611
   5188.00000000           -768          -1655            690          -2258
   5192.00000000          -6143            929           4017          -4438
   5196.00000000           1591           4082          -4152            670
   5200.00000000           1001          -3181          -1525          -4866
   5204.00000000          -6861            711           1968          -2683
   5208.00000000           -485            787           1733           2035
   5212.00000000           -107          -2607          -4073          -2903
   5216.00000000          -3628          -4925           -884           2129
   5220.00000000          -3017           -835          -1465           1330
   5224.00000000            534           1135            725           1957
   5228.00000000            -86          -1092           3017           4162
   5232.00000000          -3329            661           -139           2625
   5236.00000000          -1611          -4704          -5095          -1150
   5240.00000000          -3460            -99           3743           -745
   5244.00000000          -6281            100            124          -2294
   5248.00000000           3514           1405           3025           -530
   5252.00000000           2763          -4369          -3103            521
   5256.00000000           3793          -2415            914             74
   5260.00000000          -3432          -2875          -3896          -1533
   5264.00000000          -2922          -2118            109           2830
   5268.00000000          -5035           -728           1067          -2306
   5272.00000000           -178           4205           1080          -3000
   5276.00000000          -4019           1031           4379            711
   5280.00000000          -1164          -3253          -1563          -4592
   5284.00000000           1775           3396           2531           -756
   5288.00000000           1102            162            294           3372
   5292.00000000          -1641          -3384           2593           2020
   5296.00000000          -4479          -2412           -323          -2763
   5300.00000000           2684           2594          -4878          -2008
   5304.00000000           -580           1567           3523          -3281
   5308.00000000          -4944            581           1210          -6115
   5312.00000000          -3407          -2671          -1285           3419
   5316.00000000          -2687          -4300           2813          -1291
   5320.00000000            905          -2108          -5390          -1892
   5324.00000000          -1944           1721           1571          -2815
   5328.00000000            675           -591          -2951          -2036
   5332.00000000           1062            -72           -425           -129
   5336.00000000           2827           -601           1331           2199
   5340.00000000           1603          -2475          -1867           1127
   5344.00000000            456          -4553           1101          -3865
   5348.00000000           4083           -484            467          -1037
   5352.00000000          -2031            -60          -3621           -895
   5356.00000000          -4005           1446           3103            294
   5360.00000000            106           2852            430            310
   5364.00000000          -2246           1529          -3884           -564
   5368.00000000            708          -1014           -127            177
   5372.00000000          -3521          -1476            281           -512
   5376.00000000           -144           1211           -968           -399
   5380.00000000          -3679           -158          -2580          -4415
   5384.00000000          -4427           -662           1702           2027
   5388.00000000          -4304           1072            884           1575
   5392.00000000          -1619           -534           2162          -2700
   5396.00000000           4392           -399          -3453          -1063
   5400.00000000          -4115           1335           3314          -3053
   5404.00000000          -3598          -5573          -2758          -1357
   5408.00000000          -1417           1434            208           2835
   5412.00000000           -297            438           -339          -2508
   5416.00000000           2701          -1414           1979          -1122
   5420.00000000          -1290            224            385          -1537
   5424.00000000            511          -3822          -1621          -1504
   5428.00000000           -530          -1040           -910          -4194
   5432.00000000           -938           -455          -2532           -476
   5436.00000000          -1112           2047           -282           1176
   5440.00000000           -762          -2229            238            432
   5444.00000000           1137          -2742           -254           -927
   5448.00000000           -822           -198          -2252           -145
   5452.00000000           2795           -914            558          -2523
   5456.00000000          -1565          -2100           -753          -1599
   5460.00000000          -2376           2737          -1977           2243
   5464.00000000          -1643           -483            -56           1400
   5468.00000000          -2171           2146           1388           -852
   5472.00000000            164            621           1463          -2891
   5476.00000000           2173            124            198           1362
   5480.00000000          -4518             -5           1465          -2510
   5484.00000000          -2349            229            244           -189
   5488.00000000          -1039           -725          -1707           1372
   5492.00000000          -2859          -1115          -1691           1156
   5496.00000000           -765            365            891           1897
   5500.00000000           2917           -586          -1861           -540
   5504.00000000          -1234          -1574          -1920            384
   5508.00000000           2990           -817          -3690          -1903
   5512.00000000           -972           1254           2524           -794
   5516.00000000          -4077          -2005           -240          -2414
   5520.00000000          -1445           2261          -3277           -485
   5524.00000000           1529          -2976           2023           -739
   5528.00000000            353          -1026          -3149           2813
   5532.00000000            741            200           -254          -1794
   5536.00000000           -574          -2583           -762           -922
   5540.00000000           1881            -98            725          -1856
   5544.00000000          -1969          -1362          -1564           1849
   5548.00000000          -2143           1641          -3093            143
   5552.00000000           1784           -294          -2210           1164
   5556.00000000          -2687          -2382            193            707
   5560.00000000            790          -3718            353           -140
   5564.00000000          -2412           1720            306           1133
   5568.00000000             78          -2903            992            995
   5572.00000000           2486             34           2048          -1492
   5576.00000000           -237          -1419          -1088            137
   5580.00000000           -206            962          -1104            965
   5584.00000000          -1474           1445           -902           -553
   5588.00000000            853          -2179           -581          -1610
   5592.00000000          -1347          -2123            -22          -1771
   5596.00000000           -233           -858          -3264          -1022
   5600.00000000          -2864            403          -1456          -3400
   5604.00000000            137          -5340           -268            899
   5608.00000000           -475          -1249           -319           -279
   5612.00000000           -704           -961           -770            955
   5616.00000000          -1205           -469          -2896            328
   5620.00000000           -395           1087            353            -15
   5624.00000000           1533           -986          -1400           -355
   5628.00000000            841          -1912           -886           -432
   5632.00000000           -823           -811            679           1555
   5636.00000000           1995           1461             46            209
   5640.00000000           1073          -1363          -1516          -1412
   5644.00000000           1926           1251            240           -110
   5648.00000000           -916            189           -375          -1162
   5652.00000000          -1202            638           -949            490
   5656.00000000           -138          -2218            632           -916
   5660.00000000           -641           -325           2499           1478
   5664.00000000           -561          -2681          -2520            326
   5668.00000000            237           -707          -1515          -1654
   5672.00000000            658          -1588          -3128            253
   5676.00000000          -1760          -2138           -529              6
   5680.00000000          -2572           1094          -1413           1978
   5684.00000000            977          -1453          -1134             35
   5688.00000000          -1536           -858            902          -3152
   5692.00000000          -1099            777           -845          -3136
   5696.00000000          -3094           -898             -9           -878
   5700.00000000          -1423            137           -516           1696
   5704.00000000             51          -1510          -1393            714
   5708.00000000           -525            784           -344           1238
   5712.00000000          -2459          -1976          -3161           -495
   5716.00000000            -46          -3008           1420           -636
   5720.00000000            658          -1497           -854            519
   5724.00000000            347          -2179          -3262            606
   5728.00000000            810           1712          -1353            104
   5732.00000000           -183           -915            -39            -50
   5736.00000000           -954          -1386           -820            640
   5740.00000000          -1659            195          -1127          -2065
   5744.00000000            169          -1169           -911          -3752
   5748.00000000           -523          -1200            723           1319
   5752.00000000            373          -1676          -3480           -727
   5756.00000000           -657            425            659           -557
   5760.00000000          -1715          -2120             23          -1236
   5764.00000000          -1516            734          -2130            934
   5768.00000000          -2136          -1854          -1191           -976
   5772.00000000           1958           -482             59           1628
   5776.00000000          -1989           1070          -1040           -547
   5780.00000000          -1737           -236           -122           -878
   5784.00000000           1316            -28           -325           -190
   5788.00000000            107          -1284           -192           -359
   5792.00000000            550           1600             79           -809
   5796.00000000           -997            224            218             22
   5800.00000000          -1123           -941            -17           -226
   5804.00000000           -974          -1732          -1070          -2540
   5808.00000000           -593            -25           1242          -1298
   5812.00000000           -387          -2882             -3           1309
   5816.00000000          -1802          -1736            616          -1949
   5820.00000000          -1185            880           1166           1338
   5824.00000000           -128           -507           -317            173
   5828.00000000            461           -109            800           -881
   5832.00000000            705            269          -3058          -2548
   5836.00000000          -1189            213          -2163          -1335
   5840.00000000           -456           -335          -1873           1011
   5844.00000000           -767           -535           -770            228
   5848.00000000          -1455           -441            797          -2758
   5852.00000000          -1353           -308           1748           1141
   5856.00000000           -192           -598           2123           -301
   5860.00000000            437            -15            613          -1678
   5864.00000000            765            850           -444           1208
   5868.00000000            593           -696            -38           -140
   5872.00000000           -331           -757           -979          -1436
   5876.00000000            431           -935           1364           -230
   5880.00000000            304          -2212          -1770            864
   5884.00000000           2083           1122          -2696           -794
   5888.00000000           1194          -1672          -2906           -951
   5892.00000000            372             52          -1710           -753
   5896.00000000           -668            372           -348           1562
   5900.00000000           -603          -1574            571            794
   5904.00000000            853           -282            848           -689
   5908.00000000           -755            976           -287            160
   5912.00000000            233           1088          -1248          -1918
   5916.00000000          -1472           -512            -87            190
   5920.00000000           -864            482           1136            214
   5924.00000000            167          -1024            693          -1406
   5928.00000000          -1486            810           -835           -418
   5932.00000000           -284            395           -534          -1428
   5936.00000000          -1766           -691           -891           1175
   5940.00000000            824            382             10            485
   5944.00000000            204           1433            898           1397
   5948.00000000           -374          -1979          -1302           1373
   5952.00000000           -687           1293           -474            199
   5956.00000000          -1407          -1553           -582           -315
   5960.00000000            282            301           -667           1078
   5964.00000000           -423           1461          -1056           -880
   5968.00000000            298            293            287           1596
   5972.00000000            240          -1748           -651            -21
   5976.00000000           1034           1029            -65           -216
   5980.00000000            932            361           -219           1692
   5984.00000000           -905          -2900            543           -217
   5988.00000000            208           -168          -2451          -1083
   5992.00000000          -2649          -1057           -267           -518
   5996.00000000           -566           1307          -1006           1053
   6000.00000000            272           -480            831           -768
   6004.00000000            376           -391           -829              4
   6008.00000000           -284           -630           -294           -719
   6012.00000000           -283           -906            157           -871
   6016.00000000            244            171           1970             11
   6020.00000000            496            474            161           -961
   6024.00000000          -1898            240            482          -1315
   6028.00000000            602          -1193          -1431           -801
   6032.00000000            -55           -133           -498           1877
   6036.00000000            955             98           1203            975
   6040.00000000            773           -817          -1754            507
   6044.00000000            646            592          -1666            802
   6048.00000000           -911            810          -1642           -290
   6052.00000000            420            -66           -173            -27
   6056.00000000           1556           -402            436           -750
   6060.00000000            380           -955            -56            -31
   6064.00000000           -121            340           -847             90
   6068.00000000            416            -98           -650              2
   6072.00000000           1319           -746           -722            166
   6076.00000000             63           -487          -1602          -1004
   6080.00000000          -1132            470           -884            882
   6084.00000000          -1645           -262            113           1253
   6088.00000000              7            591           -276           -507
   6092.00000000          -1373            273            492           -261
   6096.00000000            208            758           -911           -650
   6100.00000000            313           1721           -283           -723
   6104.00000000            231            666            554            738
   6108.00000000           -414           1239           -670           -911
   6112.00000000            987            407            163          -1347
   6116.00000000           1641            481           -660            918
   6120.00000000           1074           -841           -781             70
   6124.00000000           1268              2            -86           -312
   6128.00000000           -107          -1421           -269            189
   6132.00000000           -269           1906            668            633
   6136.00000000            254           -419           -454           -697
   6140.00000000           -494            496            355            241
   6144.00000000           -449            275            480           -906
   6148.00000000           -141            145           -519           -674
   6152.00000000           -800           -887            652             -6
   6156.00000000            685          -1457           1373          -1053
   6160.00000000           1165            244            208           -122
   6164.00000000            561           -853           -237          -1519
   6168.00000000            -23            588          -1410           -203
   6172.00000000           -617            160           -447           -537
   6176.00000000          -1003          -1191           1915            202
   6180.00000000           -624            490            -93           -709
   6184.00000000            416           -556            691           -801
   6188.00000000           -969           -311          -1413            347
   6192.00000000           -506           -546            234          -1317
   6196.00000000           -586           -760            488           -710
   6200.00000000             79           -566            476           1339
   6204.00000000            458           -453          -1037            463
   6208.00000000            945           -384            677           -418
   6212.00000000             -2           -693           -597            628
   6216.00000000            390            232           -481            724
   6220.00000000            272            983           -198           1052
   6224.00000000          -1080           -355            326           -120
   6228.00000000           -260            262           -451           -462
   6232.00000000           -535           -646            594            185
   6236.00000000           -502           -407            -99            655
   6240.00000000           -253           -222           -114            252
   6244.00000000           -717            211           -272            -75
   6248.00000000            321           -279            231           -291
   6252.00000000            778            668          -1696           -424
   6256.00000000           -426            557           -281          -1163
   6260.00000000            -23           -591            239            128
   6264.00000000            114            112          -1464            257
   6268.00000000             69            430           -815           -987
   6272.00000000          -1864            148           -355           -134
   6276.00000000            339            594             35            223
   6280.00000000            242          -1023            464           -830
   6284.00000000          -1178           -222           -246            886
   6288.00000000           -368          -1158           -179            320
   6292.00000000           -103            799             20            228
   6296.00000000             32            487            107            849
   6300.00000000           -401           -625             13           -382
   6304.00000000           -454           -882           -781            322
   6308.00000000            731           -673           -883           -373
   6312.00000000            118           -584            398            258
   6316.00000000           -523           -127           -286           -214
   6320.00000000           -441            265           -535           -464
   6324.00000000            431            -87            662            649
   6328.00000000            444           -263           -344           -445
   6332.00000000             43            -88            493            -93
   6336.00000000            124           -566            401            331
   6340.00000000            -22            224            117           -369
   6344.00000000            940           -183             91            458
   6348.00000000            313            700            637          -1076
   6352.00000000           -157           -107           -326             15
   6356.00000000            321            731            675           1311
   6360.00000000           -179           -636          -1070           -391
   6364.00000000           1169            416          -1415            120
   6368.00000000           -463           -740           -335           -229
   6372.00000000            -42            308             10            970
   6376.00000000           1161            365             68           -106
   6380.00000000           -299            -67           -289            356
   6384.00000000           -356           -459           -275           -397
   6388.00000000           -100           1022          -1376           -634
   6392.00000000           -114            315            382           -637
   6396.00000000            236           -251           -483          -1073
   6400.00000000           -446             25           -652           -954
   6404.00000000           -362            156           -354            299
   6408.00000000           -494            229          -1152            928
   6412.00000000           -511            799           -890            617
   6416.00000000           -631            989            247           -573
   6420.00000000           -201            -51           -363           -578
   6424.00000000            -61            371            122            -40
   6428.00000000          -1096            152           -639           -608
   6432.00000000            391            638           -368           -106
   6436.00000000          -1601           -471           1263           -156
   6440.00000000           -507            159            361           -751
   6444.00000000            652            852           -127            203
   6448.00000000             43            453            333           -115
   6452.00000000            -87            -72           -241            447
   6456.00000000            237           1130            225            458
   6460.00000000            515            594           -559           -365
   6464.00000000            104           -675           -614           -246
   6468.00000000           -450             94           1068             98
   6472.00000000           -339            -88           -270           -193
   6476.00000000           -460             51            344           -719
   6480.00000000             12           -335           -980           -476
   6484.00000000           -664           -440           -144            140
   6488.00000000            283            223            533           -344
   6492.00000000            216           -295           -209            141
   6496.00000000             70           -340           -548           -538
   6500.00000000            -99           -244           -579           -404
   6504.00000000           -139            127            470           -626
   6508.00000000            241           -113            577           -426
   6512.00000000            -81           -709            130           -203
   6516.00000000           -171           -311           -370           -563
   6520.00000000            236            -50            -41            214
   6524.00000000             23            -27             99            655
   6528.00000000            -69            765             48           -701
   6532.00000000            625           -207           -967           -151
   6536.00000000           -160            -86            477           -771
   6540.00000000           -174            247            466            671
   6544.00000000             11           -467           -260           -369
   6548.00000000          -1171           -564            -29            104
   6552.00000000            534            -48            147             40
   6556.00000000            390           -167           -186           -539
   6560.00000000           -404            583            317           -361
   6564.00000000            -49            111            783            -61
   6568.00000000            100           -285           -403            112
   6572.00000000            454           -142           -663           -372
   6576.00000000           -185            -12            282             82
   6580.00000000           -665           -289           -368            353
   6584.00000000           -486            380            154            245
   6588.00000000           -437            307           -454            596
   6592.00000000            129            144           -188            265
   6596.00000000            339            205            251             88
   6600.00000000           -358           -130           -463            201
   6604.00000000            -21           -308           -592            123
   6608.00000000           -169           -650           -624            132
   6612.00000000           -385             19             89             37
   6616.00000000           -363           -335            194            327
   6620.00000000           -126           -433            225            149
   6624.00000000           -767           -614           -630            -80
   6628.00000000           -562           -259           -222             74
   6632.00000000             39           -464           -177           -673
   6636.00000000             84           -344            112            260
   6640.00000000            406            453           -518           -383
   6644.00000000            268            -36           -334            109
   6648.00000000           -468           -235            373           -121
   6652.00000000            -78            -94            618           -180
   6656.00000000           -537            -68             92           -525
   6660.00000000           -382           -299            134           -257
   6664.00000000           -159            370            193             91
   6668.00000000            644            291           -102           -295
   6672.00000000            632            342            -28           -556
   6676.00000000            127            295            -32           -253
   6680.00000000             43             96           -621            229
   6684.00000000            223            485           -612           -875
   6688.00000000            132             64            519            207
   6692.00000000          -1187             66            495           -417
   6696.00000000            142            -28           -150           -306
   6700.00000000           -134            267           -504           -608
   6704.00000000            352            577          -1108           -172
   6708.00000000           -155            285           -228           -116
   6712.00000000            344            588            404              6
   6716.00000000            215            149           -549           -424
   6720.00000000           -758           -266           -192           -454
   6724.00000000            -73           -355             30            -34
   6728.00000000            -44           -380           -113            618
   6732.00000000            313            203            285           -143
   6736.00000000            120            585            332            565
   6740.00000000            441           -203            206           -316
   6744.00000000            250           -283           -211           -318
   6748.00000000            332            -10             49           -215
   6752.00000000            -86            -28           -113           -306
   6756.00000000            143            197             92            -59
   6760.00000000            383           -555             34            477
   6764.00000000           -115            180           -449            672
   6768.00000000            -21            -40            -87            300
   6772.00000000           -664            601           -486           -201
   6776.00000000           -532           -277            -95            -59
   6780.00000000           -356           -346           -139             38
   6784.00000000            391            363            298           -460
   6788.00000000           -403            212             -7           -517
   6792.00000000            -27           -378             84           -295
   6796.00000000            179             69            756             16
   6800.00000000            287             20            951           -208
   6804.00000000             45           -127            223             25
   6808.00000000            -96            384           -144           -109
   6812.00000000             62             94            129             41
   6816.00000000           -147             33           -254           -377
   6820.00000000           -584            -17            155             98
   6824.00000000            158             55           -194            -83
   6828.00000000            108            290            109             97
   6832.00000000           -306           -123            337           -365
   6836.00000000             75            333            167            192
   6840.00000000            170             69            110            -31
   6844.00000000           -527            316            225            -78
   6848.00000000             95           -215           -531             81
   6852.00000000            610            119            -43            356
   6856.00000000            268            -44            -26           -599
   6860.00000000            377            127            410           -741
   6864.00000000             53            -69            110            122
   6868.00000000            -69            403            286            381
   6872.00000000            282            168           -170            362
   6876.00000000             84            223            248             56
   6880.00000000           -127            193            149           -343
   6884.00000000           -176            172            172            402
   6888.00000000            191            409            120            -48
   6892.00000000            -62            596            100            270
   6896.00000000            183            371             11           -265
   6900.00000000           -234             31            450           -111
   6904.00000000           -264            214           -104            -51
   6908.00000000             -0            178           -123            -58
   6912.00000000           -147             -3            128           -108
   6916.00000000           -342            148           -108             -6
   6920.00000000            276           -300            141            -62
   6924.00000000             56             36           -123            212
   6928.00000000            -72           -253           -152            139
   6932.00000000             77           -323            600            197
   6936.00000000            136            278            106            163
   6940.00000000           -216           -157           -150           -372
   6944.00000000             71           -244           -145            452
   6948.00000000              9           -189            390             21
   6952.00000000           -431            210           -277            133
   6956.00000000           -192           -239           -204           -250
   6960.00000000           -543            -37           -176             66
   6964.00000000             40           -438            360             63
   6968.00000000            425           -281            118            271
   6972.00000000            229           -209            -73             74
   6976.00000000           -195            -17           -348             54
   6980.00000000            349            429           -119           -153
   6984.00000000            114            142           -627            -13
   6988.00000000            158            -65            533            515
   6992.00000000            326           -231           -350           -334
   6996.00000000           -156           -109            325             15
   7000.00000000            210           -684            -35            246
   7004.00000000           -217             66             58            150
   7008.00000000            190           -122           -129            226
   7012.00000000           -223            159             75            155
   7016.00000000           -298            162            -70            400
   7020.00000000           -236             81            222            553
   7024.00000000            243           -110            -12             71
   7028.00000000            -61            258             72            -51
   7032.00000000            224             16            -42           -126
   7036.00000000             21            184            -70            238
   7040.00000000           -110            312            410            251
   7044.00000000             -5            187            152            388
   7048.00000000           -246            265            125             86
   7052.00000000            501            264           -344            181
   7056.00000000            180            217             -4            261
   7060.00000000             62            353             46             -3
   7064.00000000           -232            236            -79           -154
   7068.00000000            122            337           -119            -54
   7072.00000000              4            265           -153            318
   7076.00000000             49           -201              6            172
   7080.00000000            -37            217            164           -101
   7084.00000000           -257            260            -27           -334
   7088.00000000              5            -75             98            -50
   7092.00000000            241            134             -2             51
   7096.00000000             -7            140             16             39
   7100.00000000             59            249            -19            194
   7104.00000000            263            -66           -397            -16
   7108.00000000            279            -80            -39           -229
   7112.00000000           -106             22            181            283
   7116.00000000            413           -121           -301           -304
   7120.00000000            -51              6            250            260
   7124.00000000             48            113           -237            129
   7128.00000000            212            126           -229            174
   7132.00000000            355           -184            167           -316
   7136.00000000            201            187            121           -279
   7140.00000000            384            122            333              6
   7144.00000000             59           -210            -67             -3
   7148.00000000            325            204           -201            100
   7152.00000000            111           -361             -5            215
   7156.00000000            -16            -90           -165            235
   7160.00000000            246            253            305           -168
   7164.00000000            287           -166            653            281
   7168.00000000           -179            629             -9            -45
   7172.00000000            155             86            -44           -145
   7176.00000000           -377            105           -507            102
   7180.00000000            182            246           -106              5
   7184.00000000           -183            167            246             76
   7188.00000000             28           -103            -50            257
   7192.00000000            -92            186            229             13
   7196.00000000            129            245             85           -311
   7200.00000000           -319            189            252            102
   7204.00000000            122             -1            149             32
   7208.00000000           -322           -110            -50             65
   7212.00000000           -213           -127             95           -147
   7216.00000000            193            263             91              1
   7220.00000000             93           -119           -352            310
   7224.00000000           -128           -260           -171           -106
   7228.00000000             -5            -82            107           -200
   7232.00000000            270           -225             55           -135
   7236.00000000           -206            163            -69             84
   7240.00000000             80              0             29           -162
   7244.00000000           -114            141           -186           -253
   7248.00000000            -52             34            127            218
   7252.00000000             97            138            115           -471
   7256.00000000            104            230           -152           -132
   7260.00000000             43             83           -217            117
   7264.00000000            243             83            -89             21
   7268.00000000             18             27           -211            234
   7272.00000000           -386            184             25            -44
   7276.00000000             22            147           -286             41
   7280.00000000            210           -100            384             -7
   7284.00000000            -98           -174            -42              1
   7288.00000000            -11            152            -71             54
   7292.00000000           -184            178            128           -130
   7296.00000000             18             46            167            259
   7300.00000000            267            193             86            -54
   7304.00000000            355            -46            -37            152
   7308.00000000             96              1             26            247
   7312.00000000            176             89           -112            -18
   7316.00000000            118           -103              5             14
   7320.00000000           -130            121             92            216
   7324.00000000           -111            190            -54            148
   7328.00000000           -102            232            130             42
   7332.00000000            138            124             70           -266
   7336.00000000            -60             18            202            -62
   7340.00000000             16            -58           -142            233
   7344.00000000            -63           -280            -78            -68
   7348.00000000             94             36            -82           -271
   7352.00000000            -44            -47            130           -186
   7356.00000000             91            195            -34            306
   7360.00000000            168           -117             46             10
   7364.00000000             87            102            227             12
   7368.00000000            284            -49             53            -99
   7372.00000000            263             70             76             83
   7376.00000000           -211           -159            198             40
   7380.00000000            261            217           -223            -60
   7384.00000000           -228             39            -47             93
   7388.00000000            216            -89           -135            129
   7392.00000000            -40            -90             73            242
   7396.00000000           -104           -180            140            -27
   7400.00000000             -3            -54            195             80
   7404.00000000            131            -23             28            120
   7408.00000000           -130            323           -101            130
   7412.00000000           -122             59           -107            -38
   7416.00000000            146             60           -144             -2
   7420.00000000            -75            158             18            157
   7424.00000000             40            -74            -94            141
   7428.00000000            328            -38           -128             31
   7432.00000000            287            -50            233             32
   7436.00000000            -19             34            -48            213
   7440.00000000            -18            144           -212            -27
   7444.00000000            205           -125            223            213
   7448.00000000             98            163            -90            154
   7452.00000000            -12            232             57            -97
   7456.00000000           -181            270            168            142
   7460.00000000            295            -43             57           -191
   7464.00000000             98            187            -13             87
   7468.00000000            -53            113            153           -200
   7472.00000000             84            170            151             78
   7476.00000000            110            244             80            -39
   7480.00000000            315             75           -181            214
   7484.00000000            -58            -58           -146           -266
   7488.00000000             47             61            120            151
   7492.00000000            -59           -103             52            146
   7496.00000000           -146             16             95            257
   7500.00000000           -120            -33            -79             -9
   7504.00000000            -74            -61             63            100
   7508.00000000            -58            -89           -176            -14
   7512.00000000            110             35            -28             99
   7516.00000000              4             25           -198             57
   7520.00000000            -48              5             47            194
   7524.00000000            -53             82             76           -121
   7528.00000000             -4             75            257            207
   7532.00000000            -76            -19             36            122
   7536.00000000            -10             63             86             36
   7540.00000000            -24           -247            260            -43
   7544.00000000             27            -99            173             28
   7548.00000000            -14            150            -56            181
   7552.00000000            115             71            178             33
   7556.00000000           -132            119            154             35
   7560.00000000             83            -92            151            -66
   7564.00000000            -68             17            -43            187
   7568.00000000            -95            -50            193            -92
   7572.00000000           -174             -7              7           -176
   7576.00000000             12             63             36            -35
   7580.00000000            132             22             30            117
   7584.00000000            -23            202             -8             47
   7588.00000000           -103             91             -4             35
   7592.00000000            -26            174            189            -69
   7596.00000000             49            138            227            -74
   7600.00000000           -239            106           -106             90
   7604.00000000            129            -80           -164            -14
   7608.00000000             75            -73            121            -43
   7612.00000000             33            -74            -76            -49
   7616.00000000            142             76            -42             43
   7620.00000000           -134            -10            105            127
   7624.00000000            103            -57             15            -30
   7628.00000000            121            -54             37            -48
   7632.00000000             42            -31             63            140
   7636.00000000             49            153            -52             31
   7640.00000000            158            101            -77             92
   7644.00000000             -9            -35             44            102
   7648.00000000             68             22            -63            226
   7652.00000000            211           -134             52            -22
   7656.00000000             -1           -106              8             63
   7660.00000000            159             93            149             57
   7664.00000000             64           -144           -156            137
   7668.00000000           -122            158             96           -233
   7672.00000000             81            194             12             49
   7676.00000000             33            141            -51            161
   7680.00000000             65            198            -89            110
   7684.00000000           -196             34            -68            -42
   7688.00000000             -2             19            -57            -53
   7692.00000000             -2            208            -43            111
   7696.00000000              7            116            -36             68
   7700.00000000            129            -14            145            112
   7704.00000000             62             69             57            -57
   7708.00000000            -63             59             78            -22
   7712.00000000            145              7            230             83
   7716.00000000           -100             34             -3            -56
   7720.00000000            -38             12            -79             51
   7724.00000000            179            163            -14             -9
   7728.00000000            125            -81             77           -136
   7732.00000000             67             86             92             74
   7736.00000000            -22             19             81            -48
   7740.00000000             44            -21            -37            -42
   7744.00000000            118             72            -43            104
   7748.00000000            145             60             26            117
   7752.00000000            121            180             84             86
   7756.00000000            -56            -21             38            298
   7760.00000000             19            -33             95           -103
   7764.00000000             51             50             -3            -87
   7768.00000000            -17            137             55              8
   7772.00000000              2             71           -137            166
   7776.00000000             47             15            -94             69
   7780.00000000             94             37             13              0
   7784.00000000            -64             58             19             -2
   7788.00000000            143            -17            174             92
   7792.00000000             38            -23           -126            -61
   7796.00000000             96            -12            110             15
   7800.00000000            156             15            -94              2
   7804.00000000             49             69             49            -78
   7808.00000000            -50            -20             51            -22
   7812.00000000              4              7            174             93
   7816.00000000             70             53             32            154
   7820.00000000            117            -37             84            -61
   7824.00000000             90             90             60            -37
   7828.00000000             52             80            -74             39
   7832.00000000             -6             67            -17            -31
   7836.00000000              3             21            153            -85
   7840.00000000             68            -16             80            125
   7844.00000000             12             76            -11             23
   7848.00000000             81              7             43            -53
   7852.00000000            134            149             -2             71
   7856.00000000             87             10            -62             44
   7860.00000000             44             20             66            122
   7864.00000000            114             -3             41             75
   7868.00000000            -61             33             18             95
   7872.00000000            -38             61            123             55
   7876.00000000              4             26            -34             70
   7880.00000000             84            -49           -146            -14
   7884.00000000             47            -41              3           -140
   7888.00000000            -16             -1              8             90
   7892.00000000            125            -20            216            -75
   7896.00000000            -66            149             30             98
   7900.00000000             -8             78             88            -72
   7904.00000000             42             26             11             27
   7908.00000000              8            -27             28             -9
   7912.00000000            100             51            -49             68
   7916.00000000             66             97             -9             68
   7920.00000000             15             35             66            -22
   7924.00000000             53            -15              2            103
   7928.00000000             22             89             96             42
   7932.00000000              2             20             92           -108
   7936.00000000           -115            -55             46            113
   7940.00000000            206             85            -59             71
   7944.00000000             -2            165             33            -66
   7948.00000000            123             34             -9            -51
   7952.00000000             71           -143             -3            122
   7956.00000000              3            -82             47             63
   7960.00000000             -1            -33             70             72
   7964.00000000            136            -31             83            -22
   7968.00000000            -30            118             30             49
   7972.00000000             49             72             35            189
   7976.00000000             -4            -49            107             47
   7980.00000000             33             11            -68            -55
   7984.00000000            100              0           -127             34
   7988.00000000             38             13              7              3
   7992.00000000             26            -87             65             21
   7996.00000000             30             74             48             96
   8000.00000000             32            -45            -33             25
   8004.00000000             87             63            -10             66
   8008.00000000             89            -16            -11            178
   8012.00000000             53             66             38             13
   8016.00000000            -38            163             73            -19
   8020.00000000            134             20            -50            103
   8024.00000000             75            -28             -3            -30
   8028.00000000             70             86             42             23
   8032.00000000             49             56            -13             81
   8036.00000000             87             55             21             31
   8040.00000000            -50            143            104             40
   8044.00000000            -47            119            -59            -15
   8048.00000000             84            -12             -2            -23
   8052.00000000            130             36            120             54
   8056.00000000             68             78             83             47
   8060.00000000             54            -37              1            -22
   8064.00000000            -77            -38            -65             63
   8068.00000000             31            -28              0            -21
   8072.00000000              3            -23             51            -54
   8076.00000000            -87            -45            110             82
   8080.00000000            -36             -5             47             15
   8084.00000000             51             78             51             -9
   8088.00000000             27             45           -168             -9
   8092.00000000            -17             69             49            -60
   8096.00000000            -35             51              3            -32
   8100.00000000             23             52              5             11
   8104.00000000            178            -26             46             45
   8108.00000000             -4             -1             38            -48
   8112.00000000             28             38             15             21
   8116.00000000            -20           -102             -4            -30
   8120.00000000             23            163             59             21
   8124.00000000            -14             34             -1             37
   8128.00000000             62             16             -7             74
   8132.00000000             10             79           -109             10
   8136.00000000            147             50             56            -27
   8140.00000000             90             27             50             91
   8144.00000000            -20            -52             -3             22
   8148.00000000             98            -19             60            -25
   8152.00000000             27             40             57            -11
   8156.00000000            -11              1             73            -19
   8160.00000000            173           -104             10             -4
   8164.00000000             35              5             63             54
   8168.00000000             95            -21            -57             -6
   8172.00000000             70            107            -20            -38
   8176.00000000             13            -54            -31             -9
   8180.00000000            -15             16             21             -6
   8184.00000000            -64             92              6             21
   8188.00000000             31            -73            -32             56
##PAGE=N=2
##DATA TABLE= (X++(I..I)), XYDATA
      0.00000000      657359532      635111124      598166459      662398467
      4.00000000      631454186      234449590     -466969918    -1157896307
      8.00000000    -1423720134    -1037887487      -79897659     1028965598
     12.00000000     1737607177     1624902906      705547082     -537551430
     16.00000000    -1402175278    -1480590010     -866345940      -46064395
     20.00000000      509709509      639586194      508498340      354177516
     24.00000000      324574310      342312042      209764488     -206658741
     28.00000000     -796318656    -1208758684    -1046656049     -231371888
     32.00000000      867892120     1609234833     1532467843      658505506
     36.00000000     -505751368    -1318175406    -1392686926     -800825069
     40.00000000       45934000      657320927      787063584      518915028
     44.00000000      171248270        7260952       43529084       69453804
     48.00000000     -118371848     -508014175     -819272219     -745092253
     52.00000000     -188458662      598344490     1166170930     1151318695
     56.00000000      525578808     -376389945    -1048174895    -1130328297
     60.00000000     -624982819      112499299      636855033      705918373
     64.00000000      408658548       51623434     -102926496      -28618223
     68.00000000       79642833        3397695     -289835615     -601879805
     72.00000000     -634132797     -250871276      398782774      933113191
     76.00000000      993035206      495148761     -294455358     -915331765
     80.00000000    -1011234329     -564714036      115957205      610697910
     84.00000000      681067553      387842396       15533370     -171770379
     88.00000000     -113975729       31296639       48978480     -149187032
     92.00000000     -418917443     -510984545     -255552407      262176118
     96.00000000      741928119      847630724      465252970     -211893164
    100.00000000     -786032662     -917372855     -552054130       65997939
    104.00000000      551248195      650053611      389905840       13436719
    108.00000000     -206817569     -177583602      -17100281       61375196
    112.00000000      -56716067     -288144410     -411913233     -248969195
    116.00000000      176760110      615165608      757666789      458188114
    120.00000000     -142891216     -688657882     -847637327     -537614804
    124.00000000       29584606      501105606      624979724      398349619
    128.00000000       28021853     -226504468     -241100491      -88887273
    132.00000000       42547097        3947745     -175594588     -317804034
    136.00000000     -230182405      109460638      500275345      659282642
    140.00000000      428894270      -87882486     -580394166     -748781243
    144.00000000     -501869101       -1927527      449555575      601498586
    148.00000000      409891497       44154704     -247958723     -296751762
    152.00000000     -140330554       31461483       51768706      -90852286
    156.00000000     -235777511     -201954964       53594800      380492768
    160.00000000      539128760      381574376      -31515888     -465506625
    164.00000000     -658062752     -477006837      -30440775      410722616
    168.00000000      584424836      413844016       48467795     -257672116
    172.00000000     -324947503     -178967499       15975247       87103959
    176.00000000       -6150481     -145368673     -169128516      -10555422
    180.00000000      248815328      415164895      338342790       14289314
    184.00000000     -369173813     -564396124     -431353564      -47853708
    188.00000000      356516060      530645050      395266414       64344492
    192.00000000     -232040506     -327833864     -206755459       -3791616
    196.00000000      117885654       76304710      -60946191     -140355205
    200.00000000      -61197281      143616165      318183591      295299420
    204.00000000       44333272     -284864706     -479918235     -396656425
    208.00000000      -73102619      290901398      479491682      385109015
    212.00000000       89092410     -213723599     -339239143     -239895823
    216.00000000      -24297793      136321478      135934414       10662148
    220.00000000      -96801946      -74017603       73707350      227163557
    224.00000000      239827239       59962160     -212835889     -397444494
    228.00000000     -358149615      -96255194      239197293      435484999
    232.00000000      375219854      103808367     -202135161     -351782316
    236.00000000     -273559299      -60012561      134459482      182286569
    240.00000000       88773471      -38992409      -76947293        5879679
    244.00000000      137429968      184162759       77326180     -138872697
    248.00000000     -313645705     -311988143     -105346065      188276629
    252.00000000      386210059      358764023      120451882     -177085392
    256.00000000     -349629826     -308061654     -101573388      116876671
    260.00000000      212061666      149207276       17694168      -71144301
    264.00000000      -41624126       56223342      120389534       70656230
    268.00000000      -81640668     -230543871     -246984147      -96649456
    272.00000000      145787987      327839823      325433394      125554813
    276.00000000     -149216963     -328485214     -307884316     -121914514
    280.00000000      107320360      225875192      184760938       44129815
    284.00000000      -77265517      -94160323      -14622141       70963683
    288.00000000       74819644      -21743001     -147617745     -195768729
    292.00000000      -98046573       97748373      267353043      288172579
    296.00000000      131795018     -112602948     -291482148     -294807054
    300.00000000     -129145442       95291440      234315626      217933591
    304.00000000       77389754      -75027603     -138102568      -87088383
    308.00000000       12791166       70315934       32272572      -61862890
    312.00000000     -126262150      -87978767       48738789      183537446
    316.00000000      223080876      112118554      -80179530     -238144594
    320.00000000     -253008581     -116804845       88544290      229765954
    324.00000000      224206017       86001531      -80928981     -170472567
    328.00000000     -134001664      -21336060       72976833       77088600
    332.00000000        5847966      -74446003      -83224358       -4601202
    336.00000000      105430916      161489750      102565152      -45155007
    340.00000000     -185263073     -218075270     -110811788       72022472
    344.00000000      213360656      221819898       99084806      -69194639
    348.00000000     -179962582     -165339339      -54332666       65752830
    352.00000000      115214723       71770850      -17990877      -73381275
    356.00000000      -50427511       32126639       99821010       87437066
    360.00000000       -8727362     -125895156     -168320263      -99863304
    364.00000000       43681471      170701793      192572188      100876555
    368.00000000      -47807702     -161627553     -167129552      -72353248
    372.00000000       53295308      125427561      102934786       14063357
    376.00000000      -61448199      -69020945       -9833305       61814037
    380.00000000       73629695       12196204      -78880577     -132334069
    384.00000000      -93824656       17792112      130717178      170147285
    388.00000000      103760692      -31261329     -146612419     -169101442
    392.00000000      -87244365       39746392      132868250      128858324
    396.00000000       47081831      -46753427      -84470728      -49915550
    400.00000000       20180146       62233881       38895977      -28978844
    404.00000000      -87849226      -84342317       -6186645       88557558
    408.00000000      137672793       98250094      -12145055     -123192568
    412.00000000     -159175744      -95362687       23070883      122229055
    416.00000000      139105412       69984993      -27958018      -88977611
    420.00000000      -78748144      -15755849       44638618       54726628
    424.00000000       13331591      -46264790      -64160019      -24039582
    428.00000000       51351906      102822579       82535592       -1705319
    432.00000000      -98547989     -138204294      -94150688        9746314
    436.00000000      105327801      133971788       79142105      -18825273
    440.00000000      -93908009      -99513725      -41942969       30982818
    444.00000000       65625742       46708913       -9461574      -44615968
    448.00000000      -33790431       18164073       68776946       68154199
    452.00000000       14550971      -63797987     -109135619      -85202712
    456.00000000       -2110017       86372516      122084886       80197227
    460.00000000       -9828148      -89804442     -108745286      -60131965
    464.00000000       17626096       70783772       68471431       19765043
    468.00000000      -32263907      -49723128      -15574073       29446809
    472.00000000       55597330       29326262      -27026031      -73090802
    476.00000000      -69713684      -12982990       62257289       99064289
    480.00000000       73227202       -1663283      -75308182     -103755947
    484.00000000      -64817912        8756947       68202462       76227922
    488.00000000       35894779      -21974034      -55149654      -41701431
    492.00000000        1445363       38963143       37649819        -280057
    496.00000000      -40806867      -52075439      -17180571       39226993
    500.00000000       77174051       62266944        4737456      -58858332
    504.00000000      -87275453      -58898018        4187634       59922037
    508.00000000       78860493       41296212      -14676238      -56852336
    512.00000000      -56221796      -16777063       26346278       39489587
    516.00000000       16816640      -20948403      -39649595      -22923678
    520.00000000       19412527       54855049       51801671       12069711
    524.00000000      -39926694      -71569126      -55007128       -2614902
    528.00000000       53491868       76264538       50425107       -6297717
    532.00000000      -54618043      -62698809      -28451894       16378406
    536.00000000       40539094       29943462       -2129956      -28260569
    540.00000000      -28779560       -1472179       31364569       44336520
    544.00000000       19153757      -22405172      -56105440      -51996463
    548.00000000       -8993774       40307822       67587930       51337543
    552.00000000        3828787      -43028130      -58059781      -35579384
    556.00000000        4888801       37337979       36634987       12514535
    560.00000000      -16935911      -29952118      -13769214       15325790
    564.00000000       30999047       19002069      -14033725      -41965192
    568.00000000      -40690265      -11659676       30539905       54154281
    572.00000000       45988078        6386050      -34788374      -51679573
    576.00000000      -39040823        -310486       36679478       44216971
    580.00000000       22283182       -9852951      -27599861      -21334829
    584.00000000         404921       19247171       17490974       -2210448
    588.00000000      -25631726      -32354397      -15085555       15600999
    592.00000000       40321970       38917486        8269784      -28393619
    596.00000000      -47167710      -36449473       -2747363       31025003
    600.00000000       41787131       26794222       -3628524      -25096179
    604.00000000      -23858349       -6786906       13557170       19632267
    608.00000000        5551206      -14161955      -24864007      -15660073
    612.00000000       10356944       31882702       33232624       10326424
    616.00000000      -21624492      -42444448      -36243162       -9990546
    620.00000000       21199889       38787729       29704043        3803127
    624.00000000      -19270706      -28180483      -15173889        6672184
    628.00000000       19028215       13097655       -2584619      -17974227
    632.00000000      -14955323        2809800       20106715       26966545
    636.00000000       12053907      -11385871      -31325323      -32119625
    640.00000000      -12608741       13897823       31951911       27534255
    644.00000000        7052790      -14044426      -23361883      -16816339
    648.00000000         328010       11378394       11791104         439236
    652.00000000       -9726323       -9508062         768556       15138220
    656.00000000       22151786        9501965       -9424187      -26437046
    660.00000000      -28321947      -11776316       12549437       29479411
    664.00000000       27079140        9282226      -13486113      -25402102
    668.00000000      -21610534       -3914923       10810776       14959472
    672.00000000        7129249       -5736539       -9626899       -4299893
    676.00000000        7823870       15628305       10122965       -3128284
    680.00000000      -17449642      -21232974       -9768981        7297437
    684.00000000       23251753       24458696       11962967       -7851804
    688.00000000      -20494593      -20288916       -8015695        6919062
    692.00000000       14237178        8718943        -980807       -8777517
    696.00000000       -3730247        2627225        9667195        8569764
    700.00000000       -1252015      -15018264      -18537033      -10367718
    704.00000000        7316880       23357328       21950556       12324312
    708.00000000       -7164486      -19269053      -20199130       -7734529
    712.00000000        6361633       13308607       11012034        1616045
    716.00000000       -6176031       -7177528       -1886543        5905725
    720.00000000        6157314         405022      -10572318      -14785370
    724.00000000      -10703987        1938365       14229148       19475284
    728.00000000       13339400       -3928472      -15100441      -19490553
    732.00000000       -9103425        3722963       11926608       13964836
    736.00000000        6247811       -3922489       -5968348       -3161097
    740.00000000        2760010        4656038          81400       -7967560
    744.00000000      -11270944       -8343196        1899844       12287111
    748.00000000       17638221       11375608       -3131875      -15327703
    752.00000000      -17892849      -11023514        2819059       11436296
    756.00000000       14131463        6504819       -1223904       -5846624
    760.00000000       -4158828        -506231        3749048        1679722
    764.00000000       -2050986       -6965261       -7395573        1218821
    768.00000000       10661455       14192071       10981478        -656050
    772.00000000      -12155486      -16005028      -11580903         -66943
    776.00000000       11757921       12390334        8412064         179659
    780.00000000       -5005815       -5256546       -2017471        1751068
    784.00000000        1986323       -3693734       -4582454       -3934401
    788.00000000        1070191        8930307       10881909        8114482
    792.00000000       -1355419      -10689094      -16186936      -10184806
    796.00000000        -733197        8117395       11607291        8409725
    800.00000000         551054       -5146484       -7513870       -4325946
    804.00000000        -128440        3174086        -204252       -3737305
    808.00000000       -4629873        -923103        6856860        9677837
    812.00000000        7835837        -196535       -8381871      -11252155
    816.00000000       -9139122        -298895        8797105       10929418
    820.00000000        8809422         408980       -4600195       -4403272
    824.00000000       -3947252        -646916        2011144         -60162
    828.00000000       -2466293       -2465262         354882        3883315
    832.00000000        5258384        5640015         268068       -5480041
    836.00000000       -6570001       -4965429        -367749        5555261
    840.00000000        9860221        6285396        2088811       -4555131
    844.00000000       -6446557       -4502413        -532605        1454330
    848.00000000        2359374        1222873         259957         -33617
    852.00000000         806384        3263297        1863328        -429242
    856.00000000       -4272621       -7387006       -5112619         505427
    860.00000000        5350937        8440481        5906919        1432088
    864.00000000       -5205120       -5992305       -3905143       -2302687
    868.00000000        3397490        4220780        1522214        -434444
    872.00000000        -904559          70149         626717        1741995
    876.00000000         -19181       -4153349       -5385056       -5583151
    880.00000000        -569131        4868584        8315928        7267812
    884.00000000         519214       -4203517       -7276754       -7033301
    888.00000000       -2231865        3714972        4464883        4311203
    892.00000000        1460098        -691710        -599948        -324594
    896.00000000         133464         414557       -2863370       -3919024
    900.00000000       -4670971       -1387260        2916068        6789029
    904.00000000        7195636        1289257       -2628100       -6397591
    908.00000000       -7429652       -3946738         428143        4610866
    912.00000000        5421603        2898349        1490529        -780854
    916.00000000       -2709098        -356134          16424       -2337230
    920.00000000       -2603416       -2610158        -448618        3270416
    924.00000000        6167851        5936560        2349020       -2954287
    928.00000000       -7897330       -6582306       -2890136        2733287
    932.00000000        5727957        6144612        2573239         578030
    936.00000000       -2464722       -3779421       -2196945        -624854
    940.00000000        -405552        -494874        -310417         -86771
    944.00000000        2798899        3755162        5200961        2323370
    948.00000000       -1882616       -5377318       -6191138       -4059110
    952.00000000         690595        4923677        6334511        4001415
    956.00000000         390563       -4156415       -3358073       -2541423
    960.00000000        -668899          17106         666245         266294
    964.00000000        1083686        1388231        3523311        1915445
    968.00000000         983397       -3141602       -5193614       -6306944
    972.00000000       -2512604        1813782        4596242        6333038
    976.00000000        3503823        -831951       -4611966       -5470841
    980.00000000       -2412904        1362847        1508303        3449390
    984.00000000         386623        1233203         798937        1866443
    988.00000000        2290424        -755223       -3260747       -4047496
    992.00000000       -4039136       -1667607        2252193        4346055
    996.00000000        3482182        1513185       -1324427       -3549184
   1000.00000000       -4871623       -3159755         155645        1329881
   1004.00000000        1416760        1245380         382519        -430281
   1008.00000000        -912424        -324093         111485        -421404
   1012.00000000        -855465        -805974          84545        1917448
   1016.00000000        2504806        3658412        1348535        -998365
   1020.00000000       -2310016       -2902567       -3204894        -505049
   1024.00000000        3182989        2561433        1942924         -92609
   1028.00000000       -1427867       -1970046       -2904936          30827
   1032.00000000         -40108        -156242       -1076658        -102503
   1036.00000000         352695        1999407        2073565         868100
   1040.00000000        -478340       -2607538       -2553249       -1855830
   1044.00000000        -253865        1986624        3277943        2771504
   1048.00000000         -64951        -724789       -1799783       -1706622
   1052.00000000        -772570          16368        1781328         934745
   1056.00000000       -1111800         635691        1065148          39666
   1060.00000000         581112        -390040       -2050373       -2698994
   1064.00000000       -1794055         461180        3043760        2806940
   1068.00000000        2250391        1084107       -2755342       -3156560
   1072.00000000       -2139930         -65834         417483        2503414
   1076.00000000        1054554         543487        -102814         495585
   1080.00000000         291066         481862        -437678       -1783919
   1084.00000000        -964133        -754863         922382        1720080
   1088.00000000        2998977        2866729         748702       -1297274
   1092.00000000       -3760670       -2991049         354856        2322479
   1096.00000000        3166049        1497961         812238         113151
   1100.00000000        -973816       -1281399        -625125        -399532
   1104.00000000        -594500        -459478        -708930         619001
   1108.00000000        1904882        1904141        1179281         -48422
   1112.00000000       -1805102       -2706381       -1624784        -204061
   1116.00000000        1676023        2993327        2454344        1361447
   1120.00000000          89253       -1348333       -2107698       -1839393
   1124.00000000        -749262         346763         374216         446500
   1128.00000000         503724        2164305        1334422         330302
   1132.00000000        -670736       -1563290       -2071213       -2162063
   1136.00000000        -493688        1851936        2261095        2690932
   1140.00000000         453749       -1297341       -1254474       -2273038
   1144.00000000       -1371870        -161808         592060        1141742
   1148.00000000         892065         740326         571914         383713
   1152.00000000        -118241       -1553289       -1601720       -2084339
   1156.00000000       -1082699          -4428        1999446        2431755
   1160.00000000        1575674        1174026        -682893       -2660286
   1164.00000000       -1906675       -1936172         599353        1619989
   1168.00000000        2288401        1945796         329475        -953842
   1172.00000000       -1557580        -268173       -1370210        -547248
   1176.00000000       -1976907        -546112         830243        1091770
   1180.00000000        3055079        1002676         461796       -1743285
   1184.00000000       -2406104       -2699967        -684412        1146721
   1188.00000000        2186956        2098901        1669909         -85656
   1192.00000000       -1506495       -1969923       -1124542       -1086795
   1196.00000000         198877         825580         887513         266715
   1200.00000000        1241703         750107         886440         212282
   1204.00000000       -1607101       -1719792       -1583164        -803964
   1208.00000000        -214933        1992321        1596400         720449
   1212.00000000         -23650       -2206194       -1565159       -2048846
   1216.00000000        -848748        -250122        1005464         556210
   1220.00000000         611539         729735         419865         390630
   1224.00000000       -1437351        -494435       -1886837       -1060019
   1228.00000000         -37920        1402116        2868378        1987743
   1232.00000000        1048069        -479801        -801688       -1425260
   1236.00000000       -1151630        -347650         969951        1167352
   1240.00000000        1116275         525010         520360         609687
   1244.00000000         101531        -966892        -533597        -204937
   1248.00000000          98978         469423        1990982        1654004
   1252.00000000        1377535         687900        -689400       -1746872
   1256.00000000       -2098279       -1014139         596824        1423286
   1260.00000000        1729974        1832183         261024         155030
   1264.00000000        -208553        -757484       -1126553         428794
   1268.00000000        -335896         747234        1138306         762191
   1272.00000000        1708044         857357         297980       -1091535
   1276.00000000        -963966       -1295729           7456        -211441
   1280.00000000        1106524        2149879         -93936           2236
   1284.00000000        -404905       -1306845       -1386019       -1687181
   1288.00000000         121836         979501        1038509        -338409
   1292.00000000         314759        1298275        -634154        -359409
   1296.00000000        -951543        -681045       -1791726         467754
   1300.00000000        1491721        1688402        1394845         775867
   1304.00000000        -470100        -965845       -1123187       -1026478
   1308.00000000        -666070        -328023         635767        1327202
   1312.00000000        1767434         244952         414332         375584
   1316.00000000        -394303        -750315       -2041960        -636224
   1320.00000000         174400         442537        1458637        1420799
   1324.00000000         582576        -114230       -1371950        -874426
   1328.00000000       -1560003        -352897         855950        1502209
   1332.00000000        1129527         -94024         638599        -142834
   1336.00000000        -291344        -606306       -1026562        -694703
   1340.00000000        -142867         212565         613149         756136
   1344.00000000        1537993        -399107        -167165       -1203070
   1348.00000000       -1409268        -519703        -239488         935438
   1352.00000000        1209621         854187        1180764         759125
   1356.00000000          53948        -542687        -364346        -377573
   1360.00000000        -513098         303993        -156293         277091
   1364.00000000        1007746         505994         377539        -794157
   1368.00000000       -1151198       -1284602       -1228756        -442822
   1372.00000000         347911         674097        1180350         145921
   1376.00000000        -163864        -118885        -905587          -2289
   1380.00000000        -521194        -865261            -38         636388
   1384.00000000         506871         828032         227853          96537
   1388.00000000        -809873        -557359       -1095511        -682249
   1392.00000000        -386827         872218         988494         880670
   1396.00000000         116859         216197         322084        -125580
   1400.00000000        -437782        -493489        -368556         -94225
   1404.00000000         333998         233945         917484         517553
   1408.00000000         -92321        -766473        -629280        -466467
   1412.00000000        -224448           6841         490174        1411912
   1416.00000000        1305393         344592         923419        -692997
   1420.00000000       -1102025       -1032872        -454139        -487969
   1424.00000000         216505         893897         240699         288630
   1428.00000000         374614        -168121        -493538       -1268523
   1432.00000000          -1352         173985         190587         897552
   1436.00000000         365806         279218          82598         423923
   1440.00000000        -134678        -756101        -367167        -586133
   1444.00000000          15639         341447         340152         675033
   1448.00000000         165225         509201        -175840        -658553
   1452.00000000        -761900        -924211        -119930         837610
   1456.00000000         753655        1069217        -282844         282571
   1460.00000000        -736335       -1312958        -865848        -263525
   1464.00000000        -294502         262852         489520         431134
   1468.00000000         774936         322296        -175011        -428613
   1472.00000000        -861801        -284105         -56907         664854
   1476.00000000         912594         983408        -339069        -301521
   1480.00000000        -299402       -1236635        -105356         115070
   1484.00000000        -640981          58969         564733         264910
   1488.00000000         403349         683089         149079        -736073
   1492.00000000       -1254929        -260533        -197195         -82605
   1496.00000000         227049        1081194         615176         285061
   1500.00000000        -807020        -585420        -225045        -736874
   1504.00000000          93426         152570         611099        -265162
   1508.00000000         989400         302870         248289        -654729
   1512.00000000        -464855       -1218390        -966264         163250
   1516.00000000         977696         359165        1247448         868211
   1520.00000000         257238        -255008        -985002        -868315
   1524.00000000        -199208         321960         457369         375408
   1528.00000000         403549         791998         804292         818580
   1532.00000000        -773562        -551135        -930247        -122838
   1536.00000000        -327962         228392         653152         396934
   1540.00000000         406857         156723         -48169       -1295905
   1544.00000000        -479262        -174219          24096         511050
   1548.00000000         474065         355978         563414         562634
   1552.00000000        -369781        -519874        -318098        -864345
   1556.00000000        -382979         258739         883671         688660
   1560.00000000         641641         467834         184773        -313757
   1564.00000000        -436774        -413318        -154135        -249840
   1568.00000000         -84231        -278451         601065         270137
   1572.00000000          71214         335605        -308243        -306003
   1576.00000000        -616052        -571294         606573         259985
   1580.00000000         543994         271141         500466         299778
   1584.00000000        -326157        -571739        -376599        -103831
   1588.00000000         180579         334562         715726         -77937
   1592.00000000        -316618         -21974        -447067         370379
   1596.00000000        -304015        -349767          58224         274519
   1600.00000000         -57996         530624         337331         289318
   1604.00000000         198003        -601890        -888299        -414212
   1608.00000000        -416859          25513         323964         141963
   1612.00000000         737015         327461          -3240         -18065
   1616.00000000        -590481        -369054        -481383        -106312
   1620.00000000         -19481         189428         541802         421121
   1624.00000000           1620        -111233        -148562        -807786
   1628.00000000       -1307424        -366201         -50096         537301
   1632.00000000         405941         120199         236878         176852
   1636.00000000        -336282        -393979        -439268        -360138
   1640.00000000        -444207         151602         405983         804847
   1644.00000000         445716          15818        -148772        -535353
   1648.00000000        -243491        -512159        -555289         152638
   1652.00000000         770497        -252133          91451        -313254
   1656.00000000         340324        -428145        -245927           8854
   1660.00000000        -507160          19382        -113283         -92609
   1664.00000000         265147         490338         409068        -288785
   1668.00000000        -610056        -472854        -293918          59522
   1672.00000000         -70415         514892         257346         404891
   1676.00000000         120654         184551         -23318           2597
   1680.00000000          32203        -528128         115819         328282
   1684.00000000         975810         151801         354479         -57987
   1688.00000000        -119247        -623597          43855         366255
   1692.00000000        -177094         283051         337354         662618
   1696.00000000        -247509        -374560        -244941        -356885
   1700.00000000        -462079          53636        -180047          60397
   1704.00000000         -10332          67065         -23220        -154871
   1708.00000000         457774        -411903         -39909        -361500
   1712.00000000        -217247        -386221        -129872         416086
   1716.00000000         227833        -283009        -362436         -88649
   1720.00000000        -343259          94484         183457         366086
   1724.00000000         114702          92999         393705         584220
   1728.00000000        -204677        -254254        -330532         -53465
   1732.00000000        -370279        -149529         474840         429984
   1736.00000000         106135        -117905        -107570        -137326
   1740.00000000        -102734         -27032         464941         296847
   1744.00000000         324210         140273         322361        -571885
   1748.00000000         333828         -77250         -30481        -178425
   1752.00000000         137539        -183949        -240568         465373
   1756.00000000         522849         349712        -274149         404090
   1760.00000000        -188654        -206661        -293897        -419256
   1764.00000000         -74941         309195         -51481        -133283
   1768.00000000        -540889          30205         -79446        -148132
   1772.00000000          88098         132047         -13717        -208918
   1776.00000000         -72267        -358436         380569          42626
   1780.00000000        -287053          26725         -70747         132035
   1784.00000000         -49161          99481         641232         305979
   1788.00000000         253080        -524782         -63876        -255516
   1792.00000000          68379         -23896        -156868        -125515
   1796.00000000         -22653         385653         597608         422888
   1800.00000000          24629        -350443        -237045           1302
   1804.00000000           6770         -65230         331109         -64391
   1808.00000000         132024         393283         -93341        -135713
   1812.00000000         -80963         193483          -9316         377318
   1816.00000000         237152         -32078         -20862         223601
   1820.00000000         519218          -1643        -225091        -434988
   1824.00000000         -12030         -70948         222153         434690
   1828.00000000         138448         361620        -546622         114959
   1832.00000000         -56358         -39596        -265356         393535
   1836.00000000          -5806          30316         157644         691452
   1840.00000000        -460728         -99084        -371132         104592
   1844.00000000        -628314         232406         111306         185507
   1848.00000000         233479         432593         120582        -132973
   1852.00000000          58378        -358615        -364672          78153
   1856.00000000         171961         192635           8238          68160
   1860.00000000         235667        -100078         165518        -418339
   1864.00000000        -327962        -130098          11542         -83258
   1868.00000000         103825         326126         405237          59166
   1872.00000000        -101396         -20853         -95052        -348774
   1876.00000000        -449335         269641         118506         640405
   1880.00000000         682185         363676        -107925        -422425
   1884.00000000         -84067        -469208        -260432        -120289
   1888.00000000        -162343          57908         272397         181076
   1892.00000000         687850          34609        -315197        -202298
   1896.00000000        -343398         -39832          52588          70836
   1900.00000000         494580         290501          -9956         -67784
   1904.00000000        -341034        -336875           4563        -178856
   1908.00000000         -27103         398436          45086          56328
   1912.00000000         328358         205315        -227581        -314358
   1916.00000000        -220010        -161527         176326         242395
   1920.00000000         -41839         659576         119733         336076
   1924.00000000          41779         -25784        -596761         -81413
   1928.00000000        -126650        -311587         194338         342474
   1932.00000000         348302         182584         252628        -351820
   1936.00000000        -561317        -740635        -304242          41080
   1940.00000000         239932         486860         385747         317470
   1944.00000000         180170        -181363        -187793        -389915
   1948.00000000        -152360         -13383         160567        -112853
   1952.00000000         480766         225881         214538          16236
   1956.00000000        -323262         -56260        -523334        -243516
   1960.00000000        -207132         343036         466503         -22803
   1964.00000000          33069        -113452        -483359         -31966
   1968.00000000        -493669        -112755        -153731          71308
   1972.00000000         266156         219486         375815         159618
   1976.00000000         -35706        -418634        -230807        -316082
   1980.00000000         -60649         199658          -2409         167292
   1984.00000000          28066           6804          80378        -116423
   1988.00000000         -58847        -430650        -101709        -224942
   1992.00000000         197180         365750         185417         161451
   1996.00000000         229177         -15952         -35820        -133503
   2000.00000000        -426033        -117168         -85352        -126870
   2004.00000000         491160         369648         284357         -24076
   2008.00000000        -314612        -175334        -157002          69658
   2012.00000000         219022           -597         239457         202552
   2016.00000000         124028         375465        -239980        -206061
   2020.00000000        -481178         -70858          -8372         146575
   2024.00000000         -16343         305380         447725        -191039
   2028.00000000        -163823        -101197        -324675        -243496
   2032.00000000        -271244         190846         354633         486320
   2036.00000000         193814         316301         157101         -96222
   2040.00000000        -340361        -147664        -392841          11144
   2044.00000000         290461         688524         -18038         218819
   2048.00000000          97395        -236958        -117878        -175872
   2052.00000000        -167132        -101124          82454        -168661
   2056.00000000         187204         488486         143346          38825
   2060.00000000        -356763         -68158        -487559        -238920
   2064.00000000        -119561         -83030         144682         425220
   2068.00000000         308695        -139035        -164278        -381921
   2072.00000000        -377870         -60096         -94048         223534
   2076.00000000         284134         384694        -220364         156743
   2080.00000000         -84794        -195313        -304963        -109346
   2084.00000000          67647        -170805         179020         162300
   2088.00000000         208017        -167577         189320        -192163
   2092.00000000        -205677        -161826        -133036          26227
   2096.00000000          14149         409210          57602          -1246
   2100.00000000          85554         -82266        -291997           8007
   2104.00000000         -48582          96905        -353249          99872
   2108.00000000         204469          28812         231289         193527
   2112.00000000        -262841        -274494         -57751          79639
   2116.00000000         181900         208831        -108342          60813
   2120.00000000         104978         156211         -44819         -67497
   2124.00000000         -70266        -115926           3640         195683
   2128.00000000         340798         105253         178010         339066
   2132.00000000         -88085        -362341         120270        -449968
   2136.00000000        -187596         224140         286976         311409
   2140.00000000         149810        -103161          42130        -160271
   2144.00000000          27631        -359021          69311        -221346
   2148.00000000        -301512         152333         162077        -136917
   2152.00000000         158094        -135688          73203         -25830
   2156.00000000         111383          98199          -9833         160168
   2160.00000000         227447         183244        -167214        -202386
   2164.00000000        -378477        -177383          -6629          68274
   2168.00000000          74900          54647         215323        -211713
   2172.00000000         248364          31522         -44026        -120822
   2176.00000000          64887          90643        -205968         337928
   2180.00000000         -37958          60614          95544         128454
   2184.00000000          12595        -194546        -314117         102718
   2188.00000000          44211         433034         372663        -147360
   2192.00000000        -114216           9666         -51437         129297
   2196.00000000          39734         -48642        -121628         159133
   2200.00000000         165982         -53625           2715          77826
   2204.00000000        -127945         -97809          89703          -5547
   2208.00000000         -32641         -40441         -12605         -84110
   2212.00000000         137324         -84139         213763          10569
   2216.00000000         -54613         222649         -40813         101009
   2220.00000000        -205888        -130644         230100         243618
   2224.00000000          78009         -89836         266234        -101783
   2228.00000000        -163136         -42923         121216        -160302
   2232.00000000         136949          29610        -122230         -61522
   2236.00000000        -149165        -144603        -169456          16870
   2240.00000000         163605          83459          73338         -54307
   2244.00000000          76496         -86433        -167242        -192683
   2248.00000000          95750         -81492         -47944          47201
   2252.00000000          17514         317306          10950         -83753
   2256.00000000        -124184        -126018         -99074        -117664
   2260.00000000        -173961         -60428         121175         110033
   2264.00000000         -55807          -3509         163884        -306572
   2268.00000000          52925         -38349         234121          39979
   2272.00000000         119739         157187          80965          -2961
   2276.00000000        -160902          40406         -61473         203212
   2280.00000000         230177          15301        -108567        -165606
   2284.00000000         -21029          98309         -95347         134379
   2288.00000000         -23416        -234154         259012         141781
   2292.00000000          78631         150595         123451         -46961
   2296.00000000         -54667        -155901        -125938          -4516
   2300.00000000         119531          55443         110609         111136
   2304.00000000        -140699           6969          74294          36458
   2308.00000000         -89911         221596          68772         -29372
   2312.00000000         -65167         -66801          42760         -49966
   2316.00000000        -127636          52402          45897          24133
   2320.00000000          80212        -183181           6692         -48189
   2324.00000000          23066         133582         -57986          62797
   2328.00000000          45105         -66374         -56883        -200453
   2332.00000000        -118456          57780        -159468         -73686
   2336.00000000          47879         -24002         -75977          16594
   2340.00000000         -36320          99554         226628         -46680
   2344.00000000         173353          30169        -161158        -215377
   2348.00000000         -95098        -123963           3350         219566
   2352.00000000        -198264         -18555         -34282          26070
   2356.00000000         190251         -47828           9978        -125008
   2360.00000000          48042          62824          32298         366031
   2364.00000000          24259         228140         193988         -77332
   2368.00000000         226464         -45049         -40723        -219388
   2372.00000000        -146264         -63507        -152831         -14345
   2376.00000000          97610         148713        -161928          79328
   2380.00000000         187249        -130759        -165847         169212
   2384.00000000         -35913        -121459         -10728         -42767
   2388.00000000         116288         -81363          54637         313501
   2392.00000000         -54617          -6098         149764          21241
   2396.00000000            458         -23825         -41258         -56477
   2400.00000000          62272         114498          -4093        -244363
   2404.00000000         133803         -74517          29696         248257
   2408.00000000         129616         102615        -107694          15350
   2412.00000000          48138        -252587         133476         141928
   2416.00000000         -76472          97867        -133987          12022
   2420.00000000        -142940        -192307         -41627         -72342
   2424.00000000           3561        -152852         -30971          -3278
   2428.00000000         107555          47160          19963         -58498
   2432.00000000        -121885        -153358         -82038          44830
   2436.00000000          78134          94299          87683         -89802
   2440.00000000         -31266        -135097          -1419        -143684
   2444.00000000        -269447         -51254          25049           4048
   2448.00000000         -59813          17773         234122          79655
   2452.00000000          -6473        -116111         -51429         -47337
   2456.00000000         145605         -27004          75676          79923
   2460.00000000         111221         175140         -60890          66382
   2464.00000000          26680         -56626         119241          52666
   2468.00000000         -22020          65708        -101368         -13710
   2472.00000000        -119820        -164183         106511         -81936
   2476.00000000           1444        -183707        -128993         -44677
   2480.00000000         -63774         -11805         -33271         119427
   2484.00000000         -86088        -180272          20990        -192910
   2488.00000000          37495          96381         -96306         168551
   2492.00000000          66987         -12391         -91632        -101628
   2496.00000000        -156332        -127149          79752         -38151
   2500.00000000         -47554          80537         -14109        -151374
   2504.00000000        -121150         191739         -20350          50460
   2508.00000000         -66906          56047         182115         105383
   2512.00000000         112215         -24186         -42994        -146384
   2516.00000000        -118995          13492          38314             46
   2520.00000000         -41264         110878         189769          14368
   2524.00000000         -38926        -154259           5977         -91770
   2528.00000000          30354          33715          73234          11504
   2532.00000000          56196         150072         -17496         116906
   2536.00000000          80802         -29948         -61166        -152497
   2540.00000000          22302         183806         175582          64459
   2544.00000000         -21718         -31208         -35822        -191822
   2548.00000000         -39238          65231          15679          38938
   2552.00000000         -97680          42365         -60390          30561
   2556.00000000          92769          57142         -57330          39160
   2560.00000000         -42883          26176         152834          32686
   2564.00000000        -147966          59800          -5915         -93292
   2568.00000000        -123005          79954        -110943         128869
   2572.00000000         -57957          76851        -105698         -75988
   2576.00000000          13182          55732         -81175          50755
   2580.00000000        -107927         131440          86996         107455
   2584.00000000        -135530          13047         -64265          50001
   2588.00000000        -131180          70484         113416         -94498
   2592.00000000          -5369        -138665         -46471          -7679
   2596.00000000         -26662         -36342        -131584         -84933
   2600.00000000         -14056         -79776         -85104         -15532
   2604.00000000         -27706          40661          59695        -108662
   2608.00000000        -154341          74219         -89717        -113315
   2612.00000000         118703           7908          73239         -60310
   2616.00000000          83603         -18833         173232        -131572
   2620.00000000        -127421         -84442           -537         -23383
   2624.00000000          76483        -163377         203395         -18820
   2628.00000000          14253         -31732          84731         -75170
   2632.00000000          66152         141895         111912         -41034
   2636.00000000          99524          10429         -71106         -46378
   2640.00000000          64007          90527          77860          45833
   2644.00000000           2206         -98854           8257         -27864
   2648.00000000        -147039          12314         -38082         -57255
   2652.00000000          25767          78814          91101         107099
   2656.00000000         -27851          11308        -133732          26389
   2660.00000000          -5515         -22478          31719          91889
   2664.00000000          33093         -12975          49315          41176
   2668.00000000         -44164         -75522         120281         -18432
   2672.00000000        -121970          52650         -82866          12834
   2676.00000000           -654         -92484         -15077         -88764
   2680.00000000         106814           -664          54717         -64486
   2684.00000000         108931          80952          99273         -26995
   2688.00000000          26898          44002           5922         152531
   2692.00000000          44519        -133475         -70992           3807
   2696.00000000         -22378          19921          43870          34009
   2700.00000000         -18115        -109637        -172245          23569
   2704.00000000         141086          70738         119998          37211
   2708.00000000         -13800          10425         -53302          -9842
   2712.00000000          49966         -14552          16565          31386
   2716.00000000          57767         -13604          49181            727
   2720.00000000          84113         -45450          83432          71320
   2724.00000000         -90519         -44478           4888          72277
   2728.00000000          -4479          11879         -30582          -2785
   2732.00000000          50503          66305         170573         -24385
   2736.00000000          78097         -85313          43176          23419
   2740.00000000          96942          44843          24004         -18399
   2744.00000000          89121         -58411         -24466          46527
   2748.00000000          -5848        -125537          80232         -31507
   2752.00000000        -109076          75845         -63114          45301
   2756.00000000          -8567          34682         -87903          -3669
   2760.00000000          18472        -190330         -11387         -36187
   2764.00000000         -36340          -7138        -121250          28076
   2768.00000000         105233          17623          34904         -15355
   2772.00000000         -27685          33292         -55772           7597
   2776.00000000         -15266         -27767          59334         -42287
   2780.00000000         -42150          17722         -43299          18394
   2784.00000000          -9052         -47265         -16141         -73654
   2788.00000000         -36397          55865          96030          10527
   2792.00000000        -133439          63014          45197         -49190
   2796.00000000           1987          63876         123647          21389
   2800.00000000          34131        -146874          22602          28703
   2804.00000000          -1612          37693           4547          57802
   2808.00000000         -74901         -47765           2074          93546
   2812.00000000          21532          85632          33622         -70270
   2816.00000000          22609          71841          27768           9086
   2820.00000000          17451        -100887         -73816         -87299
   2824.00000000          92156          18816          85556        -104959
   2828.00000000          93070         -51073         -34038         -70080
   2832.00000000         -10922          81065          28196         -94436
   2836.00000000          17925          42069           7883          16146
   2840.00000000         -83146         -14721         -29276         -46988
   2844.00000000          31318          99672          -1004         -24952
   2848.00000000          34241          20013          39490         -49246
   2852.00000000          16768          56122        -108680          71930
   2856.00000000         -71142          84938         -25097        -108586
   2860.00000000         -44743          23042         -47388         107691
   2864.00000000         -59315        -140942         -18709         108636
   2868.00000000          60906          16476          40237          17541
   2872.00000000          68316        -102084          32208          50415
   2876.00000000           5308          52832        -112879         -58491
   2880.00000000           8448          -3733          61096         -64771
   2884.00000000          29276         -29938         -56744         -45619
   2888.00000000         -12526          -5468         -86943           6744
   2892.00000000          35060          35977          19722          11406
   2896.00000000          27257         106067         -11328          52171
   2900.00000000        -110827          20337          13760          50774
   2904.00000000         -44002         -69294          77260          45182
   2908.00000000         -44767        -118783         -20278         -28450
   2912.00000000         -31641           1428          -4205         -96915
   2916.00000000          46120         -33964          13660         -79805
   2920.00000000           8220         -17278         -29373         -40961
   2924.00000000         -21918          48828         -59277         -20481
   2928.00000000          73220         -99671         -19682          25689
   2932.00000000         -80304         -26241         -79171         -22839
   2936.00000000         -21016           5516         -27053          52231
   2940.00000000         -42423         -17789          34148          81997
   2944.00000000         -91199          58305         -20236         128372
   2948.00000000         -66309          -2351         -60224          74134
   2952.00000000         -46589           4558          -8463        -179348
   2956.00000000         -62543          10226         104359         -45939
   2960.00000000         -43577         -66128         -58503         -22382
   2964.00000000        -102733         -51722          61072         -16842
   2968.00000000          13398         -45508         -93542         -59358
   2972.00000000         -40367         -90774         -59985         -67924
   2976.00000000         -39439          15063         -35325         -77230
   2980.00000000         -54716         106804         -57962         -93441
   2984.00000000             31        -102586          27461          13413
   2988.00000000         -37116          25852          56989         -21986
   2992.00000000          34676           6813         119041         -41066
   2996.00000000          34988          -9773         -39380          -4987
   3000.00000000         -60423           8927         -48631            786
   3004.00000000          64408          66875          79335         -20719
   3008.00000000         -13576           1041          27699           -525
   3012.00000000         -36055          15235         -40111          80887
   3016.00000000         -64244          63627          55480         -21869
   3020.00000000         -13816         -38412         -76714        -116732
   3024.00000000          23154         -26434          32220          16130
   3028.00000000         -49714         -18309         -22081          -4710
   3032.00000000         -56392          24651         -16841         -57221
   3036.00000000         -35160          59819          82207          20759
   3040.00000000         -35444         -64383         -19289          32861
   3044.00000000         -12697         -86882           1897          19702
   3048.00000000          66226          34257         -45060          37363
   3052.00000000         -42751           8116          50859         -23080
   3056.00000000         -46528           3545          39520          25868
   3060.00000000          -8482         -40323          39833          29661
   3064.00000000         -33334         -52697           2901            962
   3068.00000000         -20004          76079          80602          49263
   3072.00000000         -19701         -13545           -765         -66131
   3076.00000000          72891          56929         -10048          47495
   3080.00000000         -36878         -35794         -14778           3641
   3084.00000000          10474          31510          50437           2674
   3088.00000000            533        -117288          51510         -37455
   3092.00000000           6285          12811          76128         -29253
   3096.00000000         -54565         -81116           9163          31123
   3100.00000000         -71958         -37007         -35106         -84044
   3104.00000000         -80531          16428          25801         -38174
   3108.00000000          48550          58687         -20282         -84572
   3112.00000000         -13022          35859         -59010          60213
   3116.00000000          23142           1406          -9968           -196
   3120.00000000         -26480         -43146           5083         -17059
   3124.00000000          15399         -18687          -5172          15171
   3128.00000000         -52351          20941         -21327          45784
   3132.00000000         -45935          51337          33744          70735
   3136.00000000          16434         -18100          28366         -60914
   3140.00000000         -62817           8072          25243          61592
   3144.00000000          11324         -20637         -37448         -12392
   3148.00000000         -21453           9228           5198         -17149
   3152.00000000          16001          -3609          46406          81468
   3156.00000000         -47570          12022          20726         -51007
   3160.00000000         -15085           7902          25162         -16691
   3164.00000000         -52299         -56337         -18728         -22006
   3168.00000000         -38417          68886          28469          58339
   3172.00000000         -35554           2700           1750         -48232
   3176.00000000          26290          -8705         -53011         -21157
   3180.00000000         -11044           -339         -38507          15132
   3184.00000000         -14892         -19471          33937          30419
   3188.00000000         -36967          10801          34031          20709
   3192.00000000          10329          12090           9602         -29161
   3196.00000000          42904         -43577         -10204         -42297
   3200.00000000         -65462         -51956          50476         -74162
   3204.00000000           7878         -29322         -85146          29698
   3208.00000000          39038         -18516         -27160        -101310
   3212.00000000           5850          -6105         -65973          -9593
   3216.00000000         -47645         -22325          18294          -4312
   3220.00000000         -49575         -24739           -243           2812
   3224.00000000         -44810         -36162         -25134          -7834
   3228.00000000         -21979            300          68287           3994
   3232.00000000         -46967         -45237         -58184          -9527
   3236.00000000          -8362          68931          89559         -13118
   3240.00000000         -21726          42001          16733           9092
   3244.00000000          -4754         -71321         -27835         -20896
   3248.00000000         -12278         -29324          43211          24621
   3252.00000000         -39193         -46581           4311          20067
   3256.00000000         -31164          15039          11466          -4467
   3260.00000000         -29799           8067         -48119          18741
   3264.00000000          -8681          -4856          -6292          -4042
   3268.00000000          23814          45945          46309         -27344
   3272.00000000          -9085         -38517         -26934          24782
   3276.00000000          -8455         -12789          -5730         -91624
   3280.00000000         -62805            363          55662          14214
   3284.00000000         -16868          -6596          37398         -15861
   3288.00000000          25165         -46635         -16402         -35015
   3292.00000000         -26063          -2463          77445          12509
   3296.00000000          15819         -24363          42900          -6998
   3300.00000000         -22830          14931          36357         -22999
   3304.00000000          23470         -15825          40066         -38552
   3308.00000000          85699         -44239         -37561          -9647
   3312.00000000           4144         -11576          99495          16144
   3316.00000000          17003         -41901         -13025           1041
   3320.00000000         -21412         -26447          34549         -15318
   3324.00000000         -12344           2093           7265         -55595
   3328.00000000          -5844          48719         -29196          24081
   3332.00000000         -39378         -33663          -2551         -19281
   3336.00000000         -15870         -34909         -26665         -11997
   3340.00000000         -15435          48371         -78519           6352
   3344.00000000         -21993          -1749          -2436          59747
   3348.00000000           2073         -41629          -1415          17179
   3352.00000000         -37184         -32974          43663         -30950
   3356.00000000          -6967           2042           5019          10668
   3360.00000000          31400          -2294         -26336         -13135
   3364.00000000         -73487          22003          -9750         -21153
   3368.00000000         -11539         -11112          23568          34019
   3372.00000000          -6638         -39048         -11766         -28968
   3376.00000000         -26513         -34791         -36263          30221
   3380.00000000          71409          -1094           2318          32760
   3384.00000000          13502          -7508          -2783          -9046
   3388.00000000          60385          53851         -33627         -17497
   3392.00000000         -15716          12617         -64896          17462
   3396.00000000          45994          60725         -35532           8837
   3400.00000000           6745          12510          29696         -23139
   3404.00000000          11933          48432         -26170          38749
   3408.00000000          44163           2216          20651          76533
   3412.00000000         -27392          22427          14631           4354
   3416.00000000         -22355          65963         -38795         -32541
   3420.00000000          42839          36581          11386          18157
   3424.00000000          -5757         -67909           -694         -46619
   3428.00000000           8805         -23046         -48513         -27059
   3432.00000000         -17231         -11941         -16081          16310
   3436.00000000          -6054         -63154         -38880         -15385
   3440.00000000          -5766         -32451          14131         -11391
   3444.00000000          -6125          -5607          29889           2275
   3448.00000000          -3715         -16913         -19649         -14376
   3452.00000000          39392         -21546          51091         -13871
   3456.00000000         -20794          48613         -34002          11153
   3460.00000000           6703         -32032          22574          33494
   3464.00000000           7270          20288          -5690         -12877
   3468.00000000          30162          -2420         -18540         -16050
   3472.00000000          24893           3254          -9804           3360
   3476.00000000           3394          -5338          33042         -38999
   3480.00000000         -14023         -13140         -24876          16686
   3484.00000000         -25023          10320          13493         -47323
   3488.00000000          -2551         -17621          -2535         -37652
   3492.00000000         -31593           9360          12895            876
   3496.00000000         -28867          -1347         -12172           2192
   3500.00000000          11588          16978          -1275          43159
   3504.00000000         -19557          -6120          12676          49689
   3508.00000000         -12977         -10248         -16251          38105
   3512.00000000         -27962          -3177          -3989          22532
   3516.00000000         -11734           3128         -14394         -18268
   3520.00000000          10902           -904          27217         -10762
   3524.00000000          -8628         -12352         -25856         -11298
   3528.00000000            404         -61220          -7401          12160
   3532.00000000           3786          30390         -10676         -10419
   3536.00000000         -39793         -44001          -5762         -18686
   3540.00000000          -6194         -54432          -9161          10288
   3544.00000000         -26062           3755           8044          18850
   3548.00000000          39911         -23642          -1613           9195
   3552.00000000          -7216         -26633          38065         -25152
   3556.00000000          28648         -11141          33206           8496
   3560.00000000            983           -556          22271         -29840
   3564.00000000          16271          15113           6794           7271
   3568.00000000          18804          55349         -16816           6142
   3572.00000000          11829          10584          30047         -16046
   3576.00000000         -26082           8317         -12092         -37792
   3580.00000000            135         -18723            422          37024
   3584.00000000           -605          12954           8061         -32847
   3588.00000000         -30079          -9128         -33639         -13283
   3592.00000000          -5353         -34178         -12452          -1692
   3596.00000000           -904         -32223          12040           5104
   3600.00000000          12131           5972           6241           9392
   3604.00000000          -4555         -19838         -29196          15143
   3608.00000000         -67639         -16350         -20829         -12577
   3612.00000000            775          10878          -9119           7078
   3616.00000000         -36834           4930          23695          -5705
   3620.00000000          -7141           -966          17549          -9195
   3624.00000000          13215          14511          17112          -1044
   3628.00000000           1200         -14336           9440          -8902
   3632.00000000          -4412          -6135         -28637         -45145
   3636.00000000          -9425         -16321          11109         -35063
   3640.00000000          25397         -24438          16700          -6191
   3644.00000000          19416          -9758          14948         -23714
   3648.00000000          -4787          -4625         -16347          15466
   3652.00000000         -13138         -24165           8153           9117
   3656.00000000         -10640          12582          13108          19192
   3660.00000000         -13597         -22039         -34188         -13058
   3664.00000000          -9891           8948          23426          20284
   3668.00000000          10813          28850         -27924          -2134
   3672.00000000         -12662         -23955         -15880         -18187
   3676.00000000          30623         -22353         -14615         -17439
   3680.00000000           6051          12919          24939           6321
   3684.00000000          -1828          -4333          -5548          29553
   3688.00000000         -33575          10648          -9006          23247
   3692.00000000         -22496          -7538          -9912         -31859
   3696.00000000           9898          -2019         -43244          17492
   3700.00000000         -10529         -14556          -2924           8689
   3704.00000000         -12293          10024         -11274           4998
   3708.00000000          -1916          -9638          18602         -18122
   3712.00000000         -23888           5637          -2946         -25842
   3716.00000000          20921         -42362           7988         -41867
   3720.00000000          12724          14918          16131           2629
   3724.00000000          13921           8767         -34341         -46356
   3728.00000000          12325          14184          11978           7928
   3732.00000000         -17070           4088         -16799          -1991
   3736.00000000          -4942          -4730           2960          27305
   3740.00000000         -10024           6788          16199           9567
   3744.00000000         -27166          -5497          37806         -14590
   3748.00000000         -26345          12187           9220          17599
   3752.00000000          11431           6625          -7338           8386
   3756.00000000         -16886          13468         -39238         -29778
   3760.00000000           6275          21527         -14999         -10565
   3764.00000000         -25895          -7527           8082           2169
   3768.00000000          50893         -36600         -12546           5611
   3772.00000000          17071         -13883           2000           5227
   3776.00000000           9349         -15082         -20574          13800
   3780.00000000           3811            -19         -11298          45038
   3784.00000000         -13959         -24792          -4985          -7810
   3788.00000000          17673          -2918           3662          -7751
   3792.00000000         -30068          12095           4730          -9194
   3796.00000000           6530          12438          23101         -27263
   3800.00000000         -21656         -12703           2733           4413
   3804.00000000          -9725         -13682           -863         -32180
   3808.00000000         -20113          15945          -3097          17815
   3812.00000000         -23701          -6742           -336          23763
   3816.00000000         -22773         -22519           4854           4106
   3820.00000000         -29749         -13393          18633           4800
   3824.00000000           4709          -8321          17898          16448
   3828.00000000          14335           9220           9600          -1228
   3832.00000000           6201           9427            609         -25654
   3836.00000000         -55252         -20308          -2448            774
   3840.00000000         -25919         -20931          13888         -29154
   3844.00000000         -15302         -11940           6971           5841
   3848.00000000          31946            541          -2149         -21781
   3852.00000000          -2985          -4828          -1843           4863
   3856.00000000          10922          -5223          -6116           1038
   3860.00000000          -3137         -18151           -287          33308
   3864.00000000          -5093         -15259          22453          43374
   3868.00000000          -5328          -1755          34061           4421
   3872.00000000           1632          -8480           1363          -3803
   3876.00000000         -28115         -22071          11149         -36586
   3880.00000000            845          25237          18754          -7691
   3884.00000000           5357           6745          -9109           3585
   3888.00000000           2951           8972          -5513          -4194
   3892.00000000          13097           3218          15356           3737
   3896.00000000          16347           4183         -25351         -13710
   3900.00000000           3494         -22022          19347         -17546
   3904.00000000          19111          21675         -15614          -3905
   3908.00000000          17303           7188           2216           4006
   3912.00000000         -13625         -13056         -29056         -21689
   3916.00000000           8319            726         -10516           6950
   3920.00000000          -9621          18975          -1733           -944
   3924.00000000          -2729         -12604          20743          12506
   3928.00000000           -823         -13147           1437           7256
   3932.00000000          -3335           4813          11695          -8510
   3936.00000000          16709           1315           -326         -35385
   3940.00000000         -17556          -9017         -39065          24136
   3944.00000000          15881          -7855          -8769          -5874
   3948.00000000          -7187           5388          -7136           3476
   3952.00000000          -9022           5484           5836         -25829
   3956.00000000         -14694            732         -17424           2471
   3960.00000000          -2171          -3633          -3487           4359
   3964.00000000         -16009           4349          26339          29843
   3968.00000000         -12533          -3893           -875           3259
   3972.00000000           1204          21405          -2193          -8620
   3976.00000000           4951         -10041           8792          -3713
   3980.00000000           8070           6944          -4085          -4133
   3984.00000000         -38828          -7281          -1739          18317
   3988.00000000         -13170          20007          -2483         -27182
   3992.00000000         -21936          23842          -9998          -9375
   3996.00000000            753          -6091          -1715          -6317
   4000.00000000           -722           1716           3137          -2634
   4004.00000000          14904         -13107           9976         -11884
   4008.00000000          16681           3183           3115          11328
   4012.00000000          -7523          22082         -14108          12658
   4016.00000000          14010           2971          -7669          -4066
   4020.00000000         -10644           -506           2234         -20354
   4024.00000000         -26507          14335          -7795           5256
   4028.00000000          -1883          -6140          -1664          -7018
   4032.00000000          -5897         -12257           4437         -12182
   4036.00000000         -17535         -19413         -23010           7214
   4040.00000000          -8260           5865           8933          -9336
   4044.00000000           -137           -614         -15094          -9231
   4048.00000000         -16565          -1977           1903          -4793
   4052.00000000          12292          -6805           2584          -3120
   4056.00000000         -14721         -10210          -3022           6856
   4060.00000000           7408          -7953           8990           1264
   4064.00000000         -13546          -3750           -292          -2759
   4068.00000000           7851           5698          -3265           1157
   4072.00000000           7848           -848          -5366          12254
   4076.00000000         -10548           2829           1217           2133
   4080.00000000          -1409          -9305         -10277           8682
   4084.00000000            663           4099          -9621           -367
   4088.00000000           8819          -3063           5412         -16543
   4092.00000000           2079          -2372          -4516         -14723
   4096.00000000           1809         -10572           -561           7332
   4100.00000000           7722           3132           4449         -21044
   4104.00000000           7416         -13075           3208           -284
   4108.00000000          -8500           -397           2860          22084
   4112.00000000          -4650           4159          -8474           9350
   4116.00000000         -17686           3629         -17160          -4728
   4120.00000000           -406           1572           8970          -3374
   4124.00000000           7842         -13753          -8517          11352
   4128.00000000           2824           8954            171          15642
   4132.00000000            648          -7785          14460         -19495
   4136.00000000          -9414           5955           5698           3889
   4140.00000000         -36556          -8576          -3686           3605
   4144.00000000         -10418          -2494         -10192         -12225
   4148.00000000         -26925           1266          23608         -22227
   4152.00000000           6619          -2757            533           2925
   4156.00000000           1173          -9981         -14691          -1825
   4160.00000000         -10742          22640            655          -4432
   4164.00000000          -3499          -9600          -3453           1171
   4168.00000000           3473          -7495         -10603          -8144
   4172.00000000          -1531          13193           4472           -229
   4176.00000000          -2696           6386          -1774          -3330
   4180.00000000           2193          -8258           7485          -5250
   4184.00000000          -4799         -13294         -31352           9025
   4188.00000000          -4975           6074         -15061          -3146
   4192.00000000            350          -1483          17786         -11177
   4196.00000000           6094           2127           6690          18000
   4200.00000000           -966          -9134         -12209         -20657
   4204.00000000          11191          14075           9412          -5690
   4208.00000000         -23160         -26997          -2713            505
   4212.00000000         -10121          21678          -9767          -2007
   4216.00000000           6358          -3603           1818         -11859
   4220.00000000           -683         -14299          14252          -3194
   4224.00000000         -24957         -11935            972           2896
   4228.00000000          -8744          16657          15001           6530
   4232.00000000          13757           -688           -716           1650
   4236.00000000           6961          -5311          11085           6579
   4240.00000000         -16156           5662         -10432         -10135
   4244.00000000         -16630          -4212          -7641          11463
   4248.00000000         -10441           7537         -17592          -6711
   4252.00000000           3607         -15397           1701          -5847
   4256.00000000           -205         -18934           -280           1372
   4260.00000000          -5579         -14048         -26782           9616
   4264.00000000           5988           -451          -7032           7016
   4268.00000000           5916          -2078           3966           5428
   4272.00000000           3571             56           -811         -20492
   4276.00000000          -8732            731          -7163           3335
   4280.00000000          -2236         -11259          -3169           2374
   4284.00000000         -17562          -4907          -5935          -5251
   4288.00000000          -5047          13542          -4785           1037
   4292.00000000         -10882           1620           5073          -7354
   4296.00000000          -5960           3363          -2156          -3662
   4300.00000000          -2463          -2109          -7851           3998
   4304.00000000         -10248         -13156          -4248           5130
   4308.00000000         -14217         -15035           4572           3191
   4312.00000000            538           7503           2154         -12265
   4316.00000000           2325          -5671           9587          -6641
   4320.00000000           9387          -3200           6221          -3284
   4324.00000000          -8611           3774           4514          -8410
   4328.00000000           8359           2740           2339            927
   4332.00000000          -4676          -6368          13426          -1969
   4336.00000000          -6674         -27196           -654           -597
   4340.00000000          -4388          -1429          -9780           9756
   4344.00000000          -5937          -7711           9107             58
   4348.00000000         -15829           2372          -2910          16536
   4352.00000000           5099          -7167          -4299           7802
   4356.00000000           1881          -2446           4851           1540
   4360.00000000           3553          -4583           1150           2588
   4364.00000000           5663           5238          -1714            447
   4368.00000000          -9507           4290         -14004           -538
   4372.00000000         -14065          -1992          -4166          -8217
   4376.00000000           5842           2913          -6697         -14821
   4380.00000000         -10453         -10732           5658           2822
   4384.00000000          -2581          -9628         -10635          -2535
   4388.00000000           7258          -6519          -5443           2230
   4392.00000000           2247           2331          -3870          -3205
   4396.00000000          -2155           6698          -4727           -884
   4400.00000000         -11280          -5223          -2053          -4844
   4404.00000000          -2347           2542            993           2414
   4408.00000000          -5742          -2426          -6013           1620
   4412.00000000           4269           6247           7596          -4307
   4416.00000000          16336          11526          -3867         -10097
   4420.00000000           2263           1162          -1584           7890
   4424.00000000         -10725           5199           1506           6307
   4428.00000000            233            681          -5195          12182
   4432.00000000           7973          -2206           -191           5579
   4436.00000000           1670         -14050           -410           3400
   4440.00000000          -1443         -15057           5898          -1657
   4444.00000000          -3599          -1557           2567           4803
   4448.00000000           1950           7492          -1515            357
   4452.00000000           1791          -7551           3771         -11038
   4456.00000000           4357          -8852         -13676          -2621
   4460.00000000          -4304          -6561           -721           8252
   4464.00000000           -274           8843           4859           7977
   4468.00000000           9216           3119          -1002           4913
   4472.00000000          -7910           -780            573          -8917
   4476.00000000          -5121           -669          -8243          -2846
   4480.00000000           3326          -6316             64         -11606
   4484.00000000          -4093           1575           1288           6246
   4488.00000000           7819           8676          18483          -5317
   4492.00000000         -13886           8995           1178          -7701
   4496.00000000           -733          -7266          -2047          -7801
   4500.00000000          -7500          10031           5673          -1360
   4504.00000000          12072         -12062          -7911          13464
   4508.00000000          -2433           -110           2181          -4313
   4512.00000000          -5050          -6741           4682           1103
   4516.00000000          -1659           1825          -3341          -9301
   4520.00000000          10215         -12055          11400            601
   4524.00000000           1239            -63           6595            259
   4528.00000000          -3975          -8963           5273           4147
   4532.00000000          -7062          -2920           9162          -7806
   4536.00000000          -2250          -5178          -8919          -7261
   4540.00000000           1073          13087           5088            735
   4544.00000000           6215           6648          -4377            247
   4548.00000000           1670           7409           7746            516
   4552.00000000          -1956         -13806          -5113          14867
   4556.00000000          -2398           3136             56          -6713
   4560.00000000           6444             32          -2458          -4572
   4564.00000000            571          -5455          -4927          -4340
   4568.00000000           5295            955          -4424           6544
   4572.00000000           3087          -3645           6994          -1946
   4576.00000000          11381           9299          -6443           7357
   4580.00000000           9423           8875          10091            558
   4584.00000000           4327          -2788            353            303
   4588.00000000          -8156           -388           3819           7083
   4592.00000000          -2587          -7109          -3307            812
   4596.00000000          -7476           3908         -16370          -2750
   4600.00000000           3538           7931          -3647           1355
   4604.00000000          -2044          -3694          -2020           5994
   4608.00000000           4578           -544         -10294          -4054
   4612.00000000          -7357          -5108          -7919           -232
   4616.00000000          -3118          -9422           6733           2374
   4620.00000000          -3146          -2752          -4205         -10376
   4624.00000000          -5685           3295            384         -10917
   4628.00000000           6405          -2435          -6685          12010
   4632.00000000           1462          -6632           3954          -3679
   4636.00000000          -7574          -4118           -835          -4298
   4640.00000000          -3175          -3843           -778          -2296
   4644.00000000          -9597           2754           -730          -5443
   4648.00000000          -1495          -3492          -2406           1260
   4652.00000000          -3537         -10919          -6419           1803
   4656.00000000           2238           5704          -2364            378
   4660.00000000          10929           4083          -5517          -4913
   4664.00000000           2513          -1653           3751          -5954
   4668.00000000           1929           2062          -9442           6631
   4672.00000000           5336           4000           3585           5404
   4676.00000000            571           5595           2205          -3040
   4680.00000000           4226           5585           2864          -1204
   4684.00000000           2569            752            947          -4644
   4688.00000000           4745          -3255           5893          -3485
   4692.00000000           -922            922          -1476          -5430
   4696.00000000          -3132           1021           1123           3873
   4700.00000000           -243            898          -7063          -2053
   4704.00000000            675          -4885           6468           1015
   4708.00000000          -2419          -3382           5080          -4502
   4712.00000000            446           3935           -356          -3424
   4716.00000000          -5211          -1573          -2644          -9518
   4720.00000000           1262           3567          -9714          -7783
   4724.00000000           6691          -6553          -4778          -3729
   4728.00000000           -488           1728         -10455           3654
   4732.00000000          -4732          -1271           2489         -10159
   4736.00000000          -5525          -6645          -4497           4402
   4740.00000000          -3761            471            368           4930
   4744.00000000          -7474          -2558          -2913          -7532
   4748.00000000           -624            -93           3426           5439
   4752.00000000          -5734          -4145          -5511          -1621
   4756.00000000          -1119          -2655           1395          -1794
   4760.00000000           2267          -2024           -173         -11096
   4764.00000000          -2936          -3406            691           1048
   4768.00000000           1367          -5273           4486           4041
   4772.00000000          -1955           -860          -3233          -2752
   4776.00000000          -1371          -4080           3871           1886
   4780.00000000          -6895          -1235           -994           1856
   4784.00000000          -6098           -835           7863          -3715
   4788.00000000           1826           2272           1767           -877
   4792.00000000           2769          -1398           1554           2852
   4796.00000000           1531           5922          -2337            839
   4800.00000000            745          -4334          -3764           4462
   4804.00000000           3438            583         -11768          -2061
   4808.00000000          -6797           1050          -6978          -5807
   4812.00000000           -948           3356           6805          -1921
   4816.00000000            827          -2600            475            103
   4820.00000000           1171           -212          -1179            942
   4824.00000000           4985          -9702           -318          -2262
   4828.00000000           6182          -2890          -6801          -5242
   4832.00000000          -6230          -1241           3222           1092
   4836.00000000          -1189           2154          -9333          -2940
   4840.00000000           7362          -8956           4903           2724
   4844.00000000          -6905           2857          -3800           7405
   4848.00000000            245           1266            950           3144
   4852.00000000           5456           4152          -2677           2378
   4856.00000000          -7150           -763          -3280           2485
   4860.00000000          -5419            886           6130          -1332
   4864.00000000           -571          -1532           1141          -5367
   4868.00000000           -867           2536           5002           2995
   4872.00000000             34          -1191           -569          -5665
   4876.00000000          -3021          -1038           2388            372
   4880.00000000           2262           2017           2411           1619
   4884.00000000            -63           2435           9400           8450
   4888.00000000          -1660          -4040          -4496          -1676
   4892.00000000           3042           5378           2222          -2658
   4896.00000000          -5376           3913          -1552          -3304
   4900.00000000             85          -2198           -776           5841
   4904.00000000          -2789          -1375          -3022          -1741
   4908.00000000          -1841           6276           -715           1895
   4912.00000000           6565           6268          10604           -403
   4916.00000000          -7132          -4093           -153          -4039
   4920.00000000          -3164          -6076           -408           1971
   4924.00000000          -1837          -1033          -4240          -3031
   4928.00000000          -2208           -965           4193            454
   4932.00000000          -1188          -1391           2396           1957
   4936.00000000            -51          -2275          -2574          -6241
   4940.00000000          -1919          -3378            837            704
   4944.00000000           3580          -3986             46          -4484
   4948.00000000          -3447           7344           2350             -7
   4952.00000000           -536          -3342           2004           2823
   4956.00000000          -1615            563           3843           -878
   4960.00000000           2708            526           5237           1145
   4964.00000000           1887          -2999          -4350           3746
   4968.00000000           4354          -2266           1403          -7366
   4972.00000000          -1091            217           1561            -65
   4976.00000000          -1872           4058            403           3432
   4980.00000000          -1452           4468          -3904            639
   4984.00000000           3702          -4217           2693          -3046
   4988.00000000          -2170           1615          -1057          -3758
   4992.00000000          -2307          -3980          -1553           5455
   4996.00000000           4877           6096          -3876           1229
   5000.00000000            311          -3458            880            992
   5004.00000000          -4160            643           2263           6269
   5008.00000000            425          -2904           5891          -5145
   5012.00000000          -4833          -6438           4226           1262
   5016.00000000            499            231          -2778           2226
   5020.00000000           -793           4833          -2164           -133
   5024.00000000           2161           2197          -1441           2555
   5028.00000000          -1501           2655          -4176            -21
   5032.00000000           5820          -3321          -3533           1294
   5036.00000000          -2886          -3999           3707          -1439
   5040.00000000            849           -565          -1058           1446
   5044.00000000          -3631           3505          -5982          -3470
   5048.00000000           1207            722          -3604           -409
   5052.00000000           -768          -6137           2456           6295
   5056.00000000             80           -529           -334          -3212
   5060.00000000          -1069          -3326            180           6031
   5064.00000000           2301           1139           -663          -4347
   5068.00000000           -759           2456            114           -562
   5072.00000000            613           3241           -832           4113
   5076.00000000          -6199           2140           -897          -6403
   5080.00000000            224           -371          -2284            413
   5084.00000000           8667            324          -2298           2486
   5088.00000000           1662           -631           3122          -3386
   5092.00000000            605           -528          -4935          -3927
   5096.00000000            -24            190           -188           4949
   5100.00000000          -2493           3450          -5555          -1539
   5104.00000000          -2584           -901          -1217            198
   5108.00000000           2187          -3424          -1759          -1186
   5112.00000000          -3888          -2098           1365          -1723
   5116.00000000           3375          -4043           -402          -1572
   5120.00000000           4238           1005           3122           1065
   5124.00000000            300          -1605          -1257          -4826
   5128.00000000          -4132          -2068          -1136           4895
   5132.00000000           1516          -5756          -1273           2049
   5136.00000000            824          -2086          -7372          -2578
   5140.00000000           2350            116          -2944           1140
   5144.00000000           -358            859           2720           3378
   5148.00000000          -1300           -220          -2436            -75
   5152.00000000           4915           3708          -1832          -2236
   5156.00000000            481           3933            672          -2373
   5160.00000000          -3081          -2316           -870          -2552
   5164.00000000          -4015           1702           2504          -1539
   5168.00000000          -3838            388          -2897           4633
   5172.00000000             94            256          -5585           -639
   5176.00000000           1918          -5571           5345           5018
   5180.00000000          -3427          -3736          -6346            273
   5184.00000000           2692           2014           2990           2534
   5188.00000000            532          -2063           3337          -2625
   5192.00000000           1384            233          -2805            465
   5196.00000000          -2198           1867           1156          -1085
   5200.00000000           2178           -993            470           1941
   5204.00000000           1819          -1945             38          -1944
   5208.00000000            311            326           1547           1347
   5212.00000000          -2336          -2210          -4270          -1718
   5216.00000000           2072          -3845           4304           2096
   5220.00000000           2323           3217          -5493            418
   5224.00000000           -337           2642            -71           2594
   5228.00000000          -1690           1493           3241           -340
   5232.00000000            516          -2457          -2456           3604
   5236.00000000          -2144           1585           2479              3
   5240.00000000          -1960          -1065           2544            712
   5244.00000000           -682           2088          -2343            -91
   5248.00000000          -1779          -2691          -2697           1021
   5252.00000000            -73          -4973           2288           3366
   5256.00000000           -351           2991           1372            495
   5260.00000000            219           -589           2682          -6656
   5264.00000000          -2265           2486            433           1492
   5268.00000000           1536           1847          -1274           -694
   5272.00000000          -4048          -1407           -101          -5052
   5276.00000000           2392            765           4005          -1640
   5280.00000000           1957          -1699           1947          -3983
   5284.00000000          -4803            663           2162             39
   5288.00000000          -3516          -1439          -5674            513
   5292.00000000           1659           2968            640           4705
   5296.00000000          -2029          -3139          -1656           3090
   5300.00000000           -582           1599           2748          -1431
   5304.00000000          -1502             14            427           -551
   5308.00000000           2535            173          -1343           2486
   5312.00000000          -1086          -3952          -1390           1931
   5316.00000000          -2755          -2182          -1818          -3446
   5320.00000000           -359          -1369           -370           2508
   5324.00000000           -112          -1175           1540           -112
   5328.00000000           -824           3399             -1           -824
   5332.00000000          -2046           2103           1760           -136
   5336.00000000           2174            -47           2668           3850
   5340.00000000            456          -1750            255          -1268
   5344.00000000           1470           2595            143          -2624
   5348.00000000           -264            308           1193          -2139
   5352.00000000           1949            958          -2625           1778
   5356.00000000           -561           -164            631          -1784
   5360.00000000           -112          -1357          -2955            277
   5364.00000000           2551            519           -222            438
   5368.00000000           3002            714           -107           1498
   5372.00000000           3021            645           2318           3721
   5376.00000000          -1268           1981            491            382
   5380.00000000           1162           1316           1301          -1427
   5384.00000000          -1823           2982           2518            584
   5388.00000000            353           2445          -1466            -52
   5392.00000000           2012           2457          -1622           3992
   5396.00000000           1435           -682          -1254          -4206
   5400.00000000            574           1149           1332          -2127
   5404.00000000           -510             31            548            -57
   5408.00000000          -3303           1033          -1643           2280
   5412.00000000           -614            569          -2235           -508
   5416.00000000            -23           1792          -2583          -1033
   5420.00000000            698           1441            100            244
   5424.00000000            211           -721           -543           2088
   5428.00000000           -753           -646            290          -1056
   5432.00000000            997          -1250            551          -4253
   5436.00000000            254          -2249          -5782           2033
   5440.00000000          -1350            234           2658           1572
   5444.00000000             16          -1064           1732          -2625
   5448.00000000           1446          -1109           -649           1106
   5452.00000000           -593           -613           1793          -1723
   5456.00000000           -445           -258          -1593          -2860
   5460.00000000          -2280            174          -2545             -1
   5464.00000000           2948            858           2156            478
   5468.00000000          -1080            932          -1910          -1423
   5472.00000000          -1717          -2577          -1497          -1188
   5476.00000000          -1974           -401            167          -1738
   5480.00000000          -1866            910          -1246           4395
   5484.00000000          -2219            129          -1351           2291
   5488.00000000            233           -379          -1108           1501
   5492.00000000           -206            315           1269           1404
   5496.00000000           2678            799          -1354           1752
   5500.00000000           -873           3256           2921            182
   5504.00000000           1811           -267           1176          -2889
   5508.00000000           -996           -169           -884           -919
   5512.00000000          -1583          -1963            -68          -3611
   5516.00000000            618            -24           -700          -1868
   5520.00000000           -183            650          -1514           -378
   5524.00000000          -1737            525           -377           -509
   5528.00000000           -591          -1365          -1673            362
   5532.00000000           1152           -585           1915            792
   5536.00000000           1101          -1075           1554           3539
   5540.00000000           -531           1186          -2748            992
   5544.00000000          -1458            837           -395           3656
   5548.00000000            883           1861            818            971
   5552.00000000            -69             38            828           -837
   5556.00000000           -455          -2314            560          -1988
   5560.00000000           -286            -51           -727           -115
   5564.00000000          -1106           1134           1119            541
   5568.00000000           -992           -567           -948           1033
   5572.00000000           2771           -895           -478            449
   5576.00000000            -53            964          -3174           -333
   5580.00000000            742           2116           2563           1038
   5584.00000000            883            803           -910           -235
   5588.00000000            394            786            513           3072
   5592.00000000           1787          -2200           2751            736
   5596.00000000           1491           1672           1598          -1160
   5600.00000000           1467            323           1640          -1283
   5604.00000000          -3678           1913           -741          -2426
   5608.00000000           -763          -3303            500          -2679
   5612.00000000            608           1899          -2132           2168
   5616.00000000           1606          -3293            931            132
   5620.00000000            453           -573           2598           2410
   5624.00000000          -2040          -2554           -104          -2391
   5628.00000000          -3256           1473           -587          -2463
   5632.00000000           1937           3517           -131           -155
   5636.00000000          -1294           -560          -1070           -981
   5640.00000000           2023           -447           2541           -495
   5644.00000000           -771           1596            434            263
   5648.00000000            692           -318            155           -777
   5652.00000000          -1398             29            348            823
   5656.00000000          -2165           -901            470          -1078
   5660.00000000          -1335           -221          -1695          -2041
   5664.00000000           -894            523          -1711          -3573
   5668.00000000          -1135           -374           1519           1672
   5672.00000000            819            527           1017            102
   5676.00000000           -890           -777          -1559            948
   5680.00000000            278          -1871          -1043            919
   5684.00000000           2262           2983            820           1523
   5688.00000000           2510           -675           -684           1769
   5692.00000000            410           -435          -1058            299
   5696.00000000           -864          -1428           -936           -450
   5700.00000000           -203          -2292            694          -1095
   5704.00000000           1814          -1056           1419          -1271
   5708.00000000           -164           -611            -25            508
   5712.00000000           1748          -2619           -213           2514
   5716.00000000           1219          -1148           1052             47
   5720.00000000            -76            324           -134          -1425
   5724.00000000             92             26            337           -181
   5728.00000000          -1320           -282          -1608            240
   5732.00000000           2024          -2322            -94            590
   5736.00000000          -1049           1717          -1446           -920
   5740.00000000           -931           3023           -364            802
   5744.00000000          -1343           2189           -786           -482
   5748.00000000           -300           -625            559           -618
   5752.00000000           -973           1226          -1001           1282
   5756.00000000           2384            297             78           1014
   5760.00000000           -345            723           -746           -406
   5764.00000000          -1013             -9            145           1164
   5768.00000000           1890            248            779            209
   5772.00000000           1105            871           1211           -831
   5776.00000000           -727          -1703          -2838           2224
   5780.00000000            271           -162           1070            695
   5784.00000000          -2417            926            224           -548
   5788.00000000           1641           -401            726          -1399
   5792.00000000             15          -1059          -1020           2650
   5796.00000000           -890           -128             71            352
   5800.00000000           1924           -167           -718            764
   5804.00000000           -103          -1164           -579           -667
   5808.00000000            897            276            653           1561
   5812.00000000           -771           1090           2357            626
   5816.00000000           -375          -1185          -1561           -426
   5820.00000000           -329            241           -287             41
   5824.00000000           -917           -866             25          -2353
   5828.00000000            299            -56           -325             13
   5832.00000000           -773           1477            469          -1062
   5836.00000000          -1809          -1104            275            278
   5840.00000000          -1155          -1815           2127            887
   5844.00000000          -2867           1092           1549           -587
   5848.00000000          -1379           -328           1050            485
   5852.00000000           -316            702           -186            375
   5856.00000000           1344           -102          -2747          -1482
   5860.00000000           -707            -26            281           -520
   5864.00000000          -1459          -2201           -163           -557
   5868.00000000           1049            983            288           -239
   5872.00000000            629           2280           1112           -405
   5876.00000000          -1156           -519           -582            173
   5880.00000000           1544            606            -96            203
   5884.00000000           -652           1790            180          -1207
   5888.00000000           1733            -95           1674           -174
   5892.00000000            504          -1361           1547             50
   5896.00000000            181           -223            -98           1999
   5900.00000000           -344           1608          -2681           -587
   5904.00000000            296             25            971           -829
   5908.00000000          -1428            206            649            674
   5912.00000000           -913           1951            153          -1326
   5916.00000000           -974             32            553           -426
   5920.00000000            -60            241            764           -907
   5924.00000000          -1118           -642           1740            457
   5928.00000000          -1183            210           -601           1639
   5932.00000000           -395            153          -2322            313
   5936.00000000             41            869           1139           1576
   5940.00000000          -1496            -92          -1089            243
   5944.00000000           1159           2611            521          -1168
   5948.00000000           1769            494           1630             16
   5952.00000000            172             11            937          -1161
   5956.00000000            144            600           -973            -91
   5960.00000000            881          -2252            783           1612
   5964.00000000           1306            638           2251          -2147
   5968.00000000           -668          -1012           -814           1307
   5972.00000000            -49           -993            749            877
   5976.00000000            -82            666           2018           -475
   5980.00000000            765            -99            193            602
   5984.00000000          -1440            687            360           1461
   5988.00000000           1046           -955            599           1163
   5992.00000000          -2027            433            842           1143
   5996.00000000            901           -171           1665           -952
   6000.00000000           -856            -58           1261            654
   6004.00000000           -657            -84          -1006            155
   6008.00000000            452           1201           -202           -373
   6012.00000000          -1671           -185           1072           1513
   6016.00000000          -1490           -426            677            709
   6020.00000000            -46           -406           -169          -1896
   6024.00000000            742          -1229              1            460
   6028.00000000            640          -1159            641           -682
   6032.00000000           -191            598          -1244           -474
   6036.00000000          -1100            541           -977          -1139
   6040.00000000           2372           1703          -1486            239
   6044.00000000             52            891            437           2169
   6048.00000000          -1401           -195          -1834           -378
   6052.00000000           -708           -645            597            668
   6056.00000000           -137           1646           -339            104
   6060.00000000          -1271           -917           -399           -671
   6064.00000000           1327           -440            830            268
   6068.00000000           -394           -306           -482           -554
   6072.00000000           1320           -912           -297            309
   6076.00000000          -1031            838           -497           2176
   6080.00000000           -803           -403           1095             48
   6084.00000000           -455           -715             36           -814
   6088.00000000            883           -734            -65           -598
   6092.00000000           1165            -16            192            466
   6096.00000000           -505            687            549          -1266
   6100.00000000           -560            932            379           -804
   6104.00000000           1010          -1215           1545            256
   6108.00000000            917           -394           -482            580
   6112.00000000           -554          -1351          -1121           1789
   6116.00000000            428            538           1037           -152
   6120.00000000           -563           1200           -938           -611
   6124.00000000            483           -221            219            621
   6128.00000000             67          -2281          -1225            714
   6132.00000000           -149             23            405           1182
   6136.00000000           -231           1153          -1189           1702
   6140.00000000            882           -485           -615           -544
   6144.00000000            653            382           1719             57
   6148.00000000            193           -445           -166           1140
   6152.00000000             90            -20            622           -416
   6156.00000000           1116            157            104           -146
   6160.00000000            490           1198            429            193
   6164.00000000            643           -741             -6           -283
   6168.00000000            -66           1134            -69           -657
   6172.00000000            365           -312            331           -590
   6176.00000000            754            176             22            544
   6180.00000000          -1433           -268            331            246
   6184.00000000            -57            556            164            829
   6188.00000000            424            -14           -953            991
   6192.00000000           -430           -291           2244           1358
   6196.00000000            131            986           -914            -19
   6200.00000000            270            -86            263            718
   6204.00000000             15            477             28             34
   6208.00000000            169            534            906             16
   6212.00000000           -303           -139            409           1014
   6216.00000000           -917          -1235            559           -144
   6220.00000000            125           -509           -181           -277
   6224.00000000            303            197           1076            684
   6228.00000000           1469            390           1728            376
   6232.00000000            662            454           -617           1041
   6236.00000000            -34            134           1002            137
   6240.00000000             68           -566             64            474
   6244.00000000           1342             26           1272            758
   6248.00000000            990            711            274            530
   6252.00000000           -164            202            508           -169
   6256.00000000            167            239            584            202
   6260.00000000            -36           1590           1068            459
   6264.00000000           -215            390              3           -932
   6268.00000000           -117            271            -83            367
   6272.00000000            201            636            562             86
   6276.00000000           -442            616            153            650
   6280.00000000           -432            505            434            108
   6284.00000000            327            470            709            375
   6288.00000000           -282           -625           -219            -99
   6292.00000000             93            420            576           -601
   6296.00000000            170            531           -391           -286
   6300.00000000            -55            562           -724            300
   6304.00000000            640           -406            -85           -150
   6308.00000000            276            560           -287           1336
   6312.00000000            356            208            285           -833
   6316.00000000            117           -556           -618            317
   6320.00000000             78            -58            636            445
   6324.00000000            266            112            623           -176
   6328.00000000             52           -353           -169           -292
   6332.00000000            834           -517             85            -30
   6336.00000000            -16            205            832            283
   6340.00000000           -750           -283            769           -542
   6344.00000000           -529           -281            593           -620
   6348.00000000            150            201            111           -365
   6352.00000000           -768           -488            -60             -3
   6356.00000000            232            126            945           -444
   6360.00000000            702           -103            117           -210
   6364.00000000          -1266           -157            -19            398
   6368.00000000           -243            -29            731            822
   6372.00000000             46            -20           1189            928
   6376.00000000           1427             31           -648           -628
   6380.00000000            617             56           -204           1042
   6384.00000000           1245             75           -238          -1041
   6388.00000000            331            866            -65           -161
   6392.00000000            124            544            363           1307
   6396.00000000            950           -885            499           -557
   6400.00000000             20            582           -335            298
   6404.00000000            843            111           -577           -264
   6408.00000000           -512            537           -514           -101
   6412.00000000            878           1032           -141           -914
   6416.00000000           -544            771            812           -255
   6420.00000000            698            131            147           -488
   6424.00000000            340            -63            201            271
   6428.00000000            408            -44            428            436
   6432.00000000            617           -471            747            937
   6436.00000000            731            226            452           1167
   6440.00000000            839             29           -127            268
   6444.00000000            207           1071            707            -31
   6448.00000000            609            313            275           1047
   6452.00000000          -1126            -16             44            258
   6456.00000000            775             65             -7            525
   6460.00000000            477            361           -692            -64
   6464.00000000            130            319           1268           -265
   6468.00000000           -629            824            229           -556
   6472.00000000            854            114            649            158
   6476.00000000            322            270            595            466
   6480.00000000           -412             36           -450           -514
   6484.00000000             97            967           -412           -613
   6488.00000000            547             92           -234           -235
   6492.00000000             65            465           -255           -397
   6496.00000000           -811            442           -242           -354
   6500.00000000            306           -268            236            717
   6504.00000000           -645            265            684             52
   6508.00000000           1143           -478            351            540
   6512.00000000            170           -603            168            399
   6516.00000000           -278           -566            355             11
   6520.00000000            131             94            329           -605
   6524.00000000            545            100             32           -985
   6528.00000000            -80            401           -219           -294
   6532.00000000            402           -416            178           -252
   6536.00000000           -345            -59            630           -383
   6540.00000000             39            201           -123            635
   6544.00000000           -169             -6             70            136
   6548.00000000            449            394             26           -521
   6552.00000000            601            305           -615           -223
   6556.00000000           -101            191            379           -867
   6560.00000000            491           -413             24            457
   6564.00000000           -120           -165           -255           -409
   6568.00000000            285            -12            988            187
   6572.00000000             88            180            226           -116
   6576.00000000            158             98            -37           -312
   6580.00000000            697            536            219             31
   6584.00000000           -125            192             -4           -262
   6588.00000000           -135           -623            -92           -585
   6592.00000000             95            222            101            270
   6596.00000000             55            373            -52            450
   6600.00000000            -99           -128            690           -541
   6604.00000000            708           -552            180           -514
   6608.00000000           -329            977           -114             77
   6612.00000000            430           -983            141            370
   6616.00000000            665           -171           -229            382
   6620.00000000            303            724           -203            557
   6624.00000000           -235           -123            -46            437
   6628.00000000             90            203             84           -165
   6632.00000000            617           -104            -41            332
   6636.00000000           -193            106            211            288
   6640.00000000            488            892            346             93
   6644.00000000             62            156           -670             32
   6648.00000000            170            754            462             79
   6652.00000000            -16           -698              5            -82
   6656.00000000            120            114           -424            134
   6660.00000000            136           -674            146            -98
   6664.00000000            121              7            285             -8
   6668.00000000            219            -99           -336            -86
   6672.00000000            210            501             19            392
   6676.00000000           -737            212            410           -542
   6680.00000000           -251            611             18            138
   6684.00000000            367           -255           -559            593
   6688.00000000            -63            372           -283           -278
   6692.00000000           -110             -9            173            -96
   6696.00000000            712            -33           -359            365
   6700.00000000            234             56              2           -292
   6704.00000000            612            504           -402           -462
   6708.00000000            733             45            533            148
   6712.00000000           -539            242            652           -130
   6716.00000000             73           -510            137            534
   6720.00000000            452            261            148            111
   6724.00000000           -522            123            570            254
   6728.00000000            428            399            682            -87
   6732.00000000            328            131             12            431
   6736.00000000             30            473           -363           -439
   6740.00000000           -208           -167            -78           -305
   6744.00000000            -19           -118             63           -663
   6748.00000000           -439             98            761           -202
   6752.00000000            -50           1097             98            301
   6756.00000000           -203           -186           -220            582
   6760.00000000             52            540            411             15
   6764.00000000            -34           -350            -99            -25
   6768.00000000            918            204            237             46
   6772.00000000            211           -341            156            217
   6776.00000000            106             52           -284           -157
   6780.00000000             89           -175            595             99
   6784.00000000           -169           -469           -384           -255
   6788.00000000            261            362           -258            687
   6792.00000000            515            -38            -97            148
   6796.00000000           -138             81           -281            -51
   6800.00000000            227            266            -52            171
   6804.00000000             98           -119             86            190
   6808.00000000           -750            152           -132            358
   6812.00000000           -400            143            212            317
   6816.00000000           -129             50           -460            212
   6820.00000000            -58            156            188            314
   6824.00000000            198           -344            -10           -100
   6828.00000000            -41            104            430            199
   6832.00000000             68           -573           -434           -100
   6836.00000000            543            150           -588            308
   6840.00000000            279           -239           -103            216
   6844.00000000            288            145            359             -1
   6848.00000000            -50              3           -142            -33
   6852.00000000           -193           -170            -53           -200
   6856.00000000            108           -246            265            209
   6860.00000000           -255            -16            279           -339
   6864.00000000             68            309            231            105
   6868.00000000             12           -133           -259           -134
   6872.00000000           -121            224            214            107
   6876.00000000             43            367           -183             25
   6880.00000000            757             68            639            677
   6884.00000000            143           -259            136             56
   6888.00000000           -403           -149             41           -137
   6892.00000000            128            211           -146             83
   6896.00000000           -299            -53            402            406
   6900.00000000            286             72           -324           -491
   6904.00000000             23            108            162             -4
   6908.00000000            -31            352            -46            198
   6912.00000000            301           -373           -830              2
   6916.00000000            243              6             47           -193
   6920.00000000            399            204            -31           -154
   6924.00000000            102            263             97           -257
   6928.00000000            578            464           -248            344
   6932.00000000           -130            489            206             21
   6936.00000000            -39            439            150             53
   6940.00000000            409            278           -514              6
   6944.00000000            355            272            -26            200
   6948.00000000            325           -251           -340             31
   6952.00000000            442            301            -19             75
   6956.00000000            489            156            348              4
   6960.00000000            196            457            142            260
   6964.00000000             73           -233           -175            -47
   6968.00000000            175            158            125            231
   6972.00000000           -152            262             58            -63
   6976.00000000            -50            101           -103           -158
   6980.00000000           -132            -88           -149              3
   6984.00000000            406            -18             29            173
   6988.00000000           -361            180           -124            259
   6992.00000000           -494             65            469            202
   6996.00000000            170            498            140           -111
   7000.00000000            -83            120           -273           -339
   7004.00000000            -49           -167            -82           -204
   7008.00000000            574            -47           -111            366
   7012.00000000             55            218            -74            109
   7016.00000000            -63            218           -206           -325
   7020.00000000              8           -398            304            177
   7024.00000000           -299             16            454            -10
   7028.00000000            270             85           -130           -175
   7032.00000000           -106            -66            142            -86
   7036.00000000           -270            379             21              8
   7040.00000000            196            -21            233           -205
   7044.00000000            293            225            152           -222
   7048.00000000            -48             62           -242            -83
   7052.00000000             80             -4             72            261
   7056.00000000           -116            -50            229            115
   7060.00000000           -150            -48            172            455
   7064.00000000             11            155           -190             27
   7068.00000000           -226             -8            144            -29
   7072.00000000           -500            198            367            -77
   7076.00000000            341            -14             55            261
   7080.00000000            179           -128            259           -256
   7084.00000000             17            -12           -167             46
   7088.00000000           -140           -247            386             73
   7092.00000000            195             17             -4            410
   7096.00000000             65           -211           -566             -3
   7100.00000000           -120           -319            125            136
   7104.00000000            392           -296            -46            114
   7108.00000000            143             18            -30           -447
   7112.00000000             56             10            190           -139
   7116.00000000           -350            251            196            215
   7120.00000000            -34           -453            137           -339
   7124.00000000           -158             76            179            278
   7128.00000000            -63            -49             35            102
   7132.00000000           -117            104            144             73
   7136.00000000            222            -56             23            340
   7140.00000000             61            134            249           -123
   7144.00000000              4            -16           -109           -331
   7148.00000000           -241           -310             74            182
   7152.00000000             35            259            -25            451
   7156.00000000            447            185           -234             57
   7160.00000000           -145           -215            333           -214
   7164.00000000           -194             60            344             36
   7168.00000000            124           -157           -109            -46
   7172.00000000           -213             99           -300             39
   7176.00000000           -168            238           -172             95
   7180.00000000            323            236             29            275
   7184.00000000            256            -91           -162            286
   7188.00000000           -130            386            248           -182
   7192.00000000            267            116           -157            125
   7196.00000000            -66            309             56           -194
   7200.00000000            105             51             98            -76
   7204.00000000            295             59            226            -75
   7208.00000000            233            -66            -41             17
   7212.00000000           -152           -104           -174             36
   7216.00000000            182             38            343            261
   7220.00000000            195            -83            -88            118
   7224.00000000            -84            341             21             37
   7228.00000000            337            -66            236            -57
   7232.00000000             82            222            -39            297
   7236.00000000             48             -5           -202            -67
   7240.00000000            399             69           -265           -156
   7244.00000000             60            -72           -149            -32
   7248.00000000            102             76           -133             22
   7252.00000000            -31            262            103            137
   7256.00000000            273             11           -140           -168
   7260.00000000             27            105            -72             26
   7264.00000000            358             83            213             83
   7268.00000000            -77           -165            -20             66
   7272.00000000            -17             31            -59             26
   7276.00000000            185            -92           -312            156
   7280.00000000           -280           -327             46           -144
   7284.00000000            -43            -84           -251            -95
   7288.00000000           -231           -241           -175             45
   7292.00000000            -70             71             30           -296
   7296.00000000             67           -122             73            -56
   7300.00000000            196            194             24             -7
   7304.00000000             41            124            187            264
   7308.00000000             38            -21            -98             34
   7312.00000000            -15            -75           -171            130
   7316.00000000            296           -164            124           -189
   7320.00000000            126           -136            -33             31
   7324.00000000           -120           -125           -208            -12
   7328.00000000            -57           -212            -70            205
   7332.00000000            -97             16            -20            -12
   7336.00000000           -285            204            129              1
   7340.00000000            -15            -18            -11            160
   7344.00000000            156           -236             36            152
   7348.00000000           -136            -25            120            -82
   7352.00000000             16            146             21            -70
   7356.00000000            364             95            142            -35
   7360.00000000             -4            -24            -73             15
   7364.00000000             51            -16            169            271
   7368.00000000           -236             98            269             86
   7372.00000000            191            253            -37             20
   7376.00000000            -71             53           -151             38
   7380.00000000             96           -193            112            116
   7384.00000000            -63             89             75             61
   7388.00000000            -12            -12            210            195
   7392.00000000            159            -27            175            205
   7396.00000000            178             92           -120           -105
   7400.00000000            -14            110           -193             54
   7404.00000000            -24            235            177            -90
   7408.00000000            206            -27             36             10
   7412.00000000             84             79             37              6
   7416.00000000           -193             44           -103            175
   7420.00000000            -69            145            172             38
   7424.00000000            159             22             97             29
   7428.00000000            122             74           -103            -94
   7432.00000000           -286             99            202           -245
   7436.00000000            159             10            204            -67
   7440.00000000           -111            139            -44           -243
   7444.00000000             43            151           -116              1
   7448.00000000           -132            -45            -27             36
   7452.00000000           -101           -245           -190             92
   7456.00000000             16            -35            119              9
   7460.00000000             47            -71             59            150
   7464.00000000            -11           -320           -156             -6
   7468.00000000            151             93            -15             68
   7472.00000000             26             62            152              7
   7476.00000000            147             73            328            -13
   7480.00000000             12            -40            152           -142
   7484.00000000             70            158             79             65
   7488.00000000            -60             51            143            173
   7492.00000000            -90             84            -30            194
   7496.00000000            134           -162             68           -209
   7500.00000000            106             63            -45            105
   7504.00000000             69             65             58           -130
   7508.00000000            -75            -54            -52            142
   7512.00000000              3             -7             62             23
   7516.00000000            -28            140           -150             11
   7520.00000000            123           -103           -194           -262
   7524.00000000            -53            109              1            144
   7528.00000000             39            -77           -225            -20
   7532.00000000           -221            114           -139            262
   7536.00000000            -75             -8             56            191
   7540.00000000             13           -228            179            -33
   7544.00000000            -19            127             63            178
   7548.00000000            205             88            -46            173
   7552.00000000           -143            141             89            152
   7556.00000000             68              5            -53           -149
   7560.00000000            278            -75             -8             21
   7564.00000000            128            -69           -111            224
   7568.00000000              3            155             80            199
   7572.00000000             47            -71            -92            -61
   7576.00000000             64            -67            -54            -44
   7580.00000000           -168           -205            -48              6
   7584.00000000            -15             45           -129            -56
   7588.00000000            -29           -103            318             66
   7592.00000000             77           -108            -60             80
   7596.00000000            -40            -15            155            -17
   7600.00000000           -115            -78             37            -54
   7604.00000000             51            129             17           -125
   7608.00000000            -91             11            194              1
   7612.00000000            -91            176            -56            203
   7616.00000000             15             83             -1            -62
   7620.00000000            150            191            118            -31
   7624.00000000            131             70            251             32
   7628.00000000             39            142           -102            151
   7632.00000000            -20            120            102            -64
   7636.00000000            -36           -130            -27             63
   7640.00000000            162            -86           -167            -65
   7644.00000000            177            142            -13           -108
   7648.00000000             36             17            264            221
   7652.00000000             60           -128            185           -110
   7656.00000000            -81              9             86            -33
   7660.00000000            -12            -86             81            -30
   7664.00000000            -87             29            155             93
   7668.00000000            -98             93           -209              7
   7672.00000000             62             35             29            -27
   7676.00000000            -25            154             35            -64
   7680.00000000            282           -200              8            137
   7684.00000000            198            -56            146             93
   7688.00000000             13             83             60           -186
   7692.00000000             20             96             41            139
   7696.00000000            175             13            110            -28
   7700.00000000            -52             19             -4            -89
   7704.00000000            -15             14           -104           -108
   7708.00000000           -133            -42             66           -297
   7712.00000000            189              1            -74            -28
   7716.00000000            -47            -65            -98            -99
   7720.00000000            164           -123             11             73
   7724.00000000             56           -224             57           -164
   7728.00000000            187           -102            143            -19
   7732.00000000            153             -1              2             40
   7736.00000000            -13            119             58            -50
   7740.00000000            -45            150            -27            -52
   7744.00000000            -29            165           -147            -97
   7748.00000000             61             -9           -123             45
   7752.00000000             24           -152            -76            237
   7756.00000000            104              0            -28             68
   7760.00000000            -15            136            -34            190
   7764.00000000            -47            -47            124            123
   7768.00000000             -4            -38           -136            -26
   7772.00000000            207            107            -34             61
   7776.00000000             13           -111            109            -14
   7780.00000000            -69            -83             78           -135
   7784.00000000            -38            -33            -37             93
   7788.00000000              8            -62            -10            -19
   7792.00000000            -22            -66             52           -174
   7796.00000000             36             39             -2             79
   7800.00000000           -161            -43            -67             23
   7804.00000000            -66            -68            122           -127
   7808.00000000            130            107             21             89
   7812.00000000            165             49            100            155
   7816.00000000            -66             64            107            -36
   7820.00000000             82             17             41            -29
   7824.00000000            -88            -62            -63            126
   7828.00000000             -4            -62             95           -141
   7832.00000000            -14           -129             47            -16
   7836.00000000             86             64             48             12
   7840.00000000             66            -57             90             52
   7844.00000000             79             80             24             67
   7848.00000000            -22             36           -124            -77
   7852.00000000             25            239            -15             14
   7856.00000000            119             -1            -25             55
   7860.00000000            -87            -27            129            -28
   7864.00000000             17             61            -45           -138
   7868.00000000            -11              6             61            -25
   7872.00000000             -8            -78            -68             10
   7876.00000000            137             67            109            -52
   7880.00000000            -94            -28            -66            -36
   7884.00000000            -73            -33             -7             27
   7888.00000000             47            -97              6            -53
   7892.00000000            128             25            -35           -120
   7896.00000000             53            -52             25              4
   7900.00000000            117             80            160            -27
   7904.00000000            -74            -40            -20             36
   7908.00000000            152           -105             17             54
   7912.00000000             45            -91             27             31
   7916.00000000             -9            -41            -69             -6
   7920.00000000             43            -45            -46             -9
   7924.00000000            -10            -11           -103            -12
   7928.00000000              6             67              3             26
   7932.00000000            -62             39             40             22
   7936.00000000             57            -74             89            -28
   7940.00000000             57            -19             -4             11
   7944.00000000              4            -17            -33             -3
   7948.00000000           -109             96             -1            -56
   7952.00000000             39            -78            -48            -10
   7956.00000000             18            -53             12            121
   7960.00000000             50             12             43            -28
   7964.00000000           -140            -63           -108            -22
   7968.00000000            -26             20            -17            -28
   7972.00000000             33             -7           -104            -70
   7976.00000000            -47             23              1           -141
   7980.00000000            130             19             27             68
   7984.00000000             59              3            -64             36
   7988.00000000             21              3             20             13
   7992.00000000            -68            -65             43              5
   7996.00000000            -39            -23             59            -43
   8000.00000000            -18             47             74            -64
   8004.00000000             28            -41              8             11
   8008.00000000             32            -65             -1            -33
   8012.00000000             38            100            100            -13
   8016.00000000            111           -126            -16            -57
   8020.00000000             78             55            -22            -68
   8024.00000000             48            -33            -41             39
   8028.00000000            -50             62             24            112
   8032.00000000           -120            -36             25             -2
   8036.00000000             91            -67             48             40
   8040.00000000            -42            -50             -9            -39
   8044.00000000            -86             88            -39            109
   8048.00000000            -65            -73             23             38
   8052.00000000             22             48             28            -71
   8056.00000000             34            -28            -42             92
   8060.00000000            -58             37           -103            -29
   8064.00000000           -112             61             12            155
   8068.00000000            -61             25             11            -13
   8072.00000000            100            -47            -77             38
   8076.00000000            -20             31            -34              8
   8080.00000000             80            -56            -51             71
   8084.00000000            -56            -33             28            -25
   8088.00000000             47            122            -52             -8
   8092.00000000             52             23             34             14
   8096.00000000            -32             96            146             -2
   8100.00000000            -24            -82             26            -25
   8104.00000000            -20            -27            -29            -18
   8108.00000000              1             43            -47             21
   8112.00000000             66             34             16             45
   8116.00000000             18            -86             21             83
   8120.00000000           -107            -25             62            -19
   8124.00000000             14             26             20            -27
   8128.00000000             15             18            -61             88
   8132.00000000            -81            -28             30             77
   8136.00000000             11             -0             45            -17
   8140.00000000             -7             54            -37            -22
   8144.00000000            -11             42             60             -9
   8148.00000000            -33            -21             18             37
   8152.00000000            -37             70            -30           -110
   8156.00000000            -51            -33            -33             45
   8160.00000000            -32             72            -77              5
   8164.00000000             33             11            -65              1
   8168.00000000            -21             -5            -34            -65
   8172.00000000             44             65             73             52
   8176.00000000             22             13            -31             14
   8180.00000000            -36              2              3             44
   8184.00000000           -105             39             32            -33
   8188.00000000            -66            -37             75            -10
##END NTUPLES=NMR FID
##END=
