##TITLE=CEC-PhSi2-flow(sequence-1045)-06-09-26
##JCAMP-DX=5.01 $$ Nanalysis NMReady v2.2.5.1
##DATA TYPE=NMR FID
##DATA CLASS=NTUPLES
##ORIGIN=Nanalysis Corp.
##OWNER=Nanalysis
##LONG DATE=2026/06/09 10:53:46-0400
##SPECTROMETER/DATA SYSTEM=NMReady 60/nanalysis-X542
##INSTRUMENTAL PARAMETERS=^1H
##TEMPERATURE=33.000006
##PRESSURE=1.000000  $$ Bar
##RESOLUTION=0.00001999999949
##SAMPLE DESCRIPTION=None
##.OBSERVE FREQUENCY=60.55081843769744
##.OBSERVE NUCLEUS=^1H
##.SOLVENT NAME=Toluene
##.ACQUISITION MODE=SIMULTANEOUS
##.SHIFT REFERENCE=INTERNAL, Toluene, 4096, 5.00000000000000
##.SOLVENT REFERENCE=5.00000000000000
##.PULSE SEQUENCE=1D
##.DELAY=(0.000000,0.000000)
##.FIELD=1.422199  $$ Tesla
##.OBSERVE 90=15.789399
##.ACQUISITION TIME=6.55279983446235
##.ZERO FILL=0
##.AVERAGES=4
##.DIGITISER RES=16
##.SPINNING RATE=0.000000
$$##.PHASE 0=-20.00000000000000
$$##.PHASE 1=79.00000000000000
$$ NMReady specific parameters
##$SCANS=4
##$SCAN DELAY=1.000014
##$TOTAL DURATION=31.338313
##$X_PULSE=14.210050
##$RECVR_GAIN=12
##$SWEEP WIDTH=20.000000
##$RELAXATIONDELAY=1.280964
##$ZEROING=7.000000
##$APODIZATION=0.030000
##$PHASECORRECTION=-20.000000,79.000000
##$PIVOT=0.000000
##$DT=0.000020
##$LOCKOFFSET=2.080000
##$SPECTRALCENTER=5.000000
##$DECIMATION=40
##$LOWESTF2=-322.245924
##$T2NUCLEUS=1H
##$PULSE_AMPLITUDE=17.500000
##$PLOTTYPE=1D
##$INTEGRALS IS MANUAL=False
##$INTEGRALS REFERENCE ENERGY=42971.726287237958
##$EXPERIMENT_SETTING_Apodization=0.03
##$EXPERIMENT_SETTING_Decoupling Mode=Off
##$EXPERIMENT_SETTING_Digital Resolution=0.02 Hz
##$EXPERIMENT_SETTING_Dummy Scans=0
##$EXPERIMENT_SETTING_Dwell Time=0.50 us
##$EXPERIMENT_SETTING_NPoints (Complex)=8192
##$EXPERIMENT_SETTING_Nucleus=1H
##$EXPERIMENT_SETTING_Pulse Angle=80.37, °
##$EXPERIMENT_SETTING_Pulse Width=14.21 us
##$EXPERIMENT_SETTING_Receiver Gain=12.00 dB
##$EXPERIMENT_SETTING_Receiver Gain (dB)=12, Auto
##$EXPERIMENT_SETTING_Scan Delay=1.0 s
##$EXPERIMENT_SETTING_Scans=4
##$EXPERIMENT_SETTING_Solvent=Toluene
##$EXPERIMENT_SETTING_Spectral Center=5.00 ppm
##$EXPERIMENT_SETTING_Spectral Width=20 ppm
##$EXPERIMENT_SETTING_TX Frequency=60.550818 MHz
##$EXPERIMENT_SETTING_Time Per Scan=7.8 sec
##$EXPERIMENT_SETTING_Zero Filling=7
##$RDC_ENABLED=1
##$RDC_TYPE=CONT5PAR
##$RDC_DATA=(0.145553,5.475700,2.437884,0.765625,0.888815)
$$ End of NMReady specific parameters
$$ Bruker specific parameters
$$ --------------------------
##$DATE=1781016826
##$SI= 65536
##$TDeff= 8192
##$SFO1= 60.55081843769744
##$O1= 302.75409218848722
##$SF= 60.55051568360525
##$BF1= 60.55051568360525
##$AQ= 6.55279983446235
##$SWH= 1250.00003157765696
##$SW= 20.64381727331761
##$SR= 0.00000000000000
##$OFFSET= 15.32198524649486
##$FIDRES= 0.15258789447969
##$O1P= 5.00000000000000
##$TD= 16384
##$DW= 399.99998989515007
##$SPECTYP= PROTON
##$NS= 4
##$DS= 0
##$DR= 16
##$DE=1.000014
##$RG=12
##$P1=14.210050
##$P= (0..2)
0.0 14.210050
##$PHC0= 59.50000000000000
##$PHC1= -79.00000000000000
##$PH_mod= 1
##$WDW= 1
##$LB= 0.02999999932945
$$ End of Bruker specific parameters
$$ ---------------------------------
##NPOINTS=8192
##DELTAX=0.0008000000
##NTUPLES=NMR FID
##VAR_NAME=TIME,FID/REAL,FID/IMAG,PAGE NUMBER
##SYMBOL=X,R,I,N
##VAR_TYPE=INDEPENDENT,DEPENDENT,DEPENDENT,PAGE
##VAR_FORM=AFFN,AFFN,AFFN,AFFN
##VAR_DIM=8192,8192,8192,2
##UNITS=SECONDS,ARBITRARY UNITS,ARBITRARY UNITS,
##FIRST=0.000000,1255.154031,387.025483,1
##LAST=6.552800,0.000036,-0.000009,2
##MIN=0.000000,-1148.122961,-870.614327,1
##MAX=6.552800,1255.154031,1001.188423,2
##FACTOR=0.00079999997979030013,0.00000058447681816787,0.00000058447681816787,1
##PAGE=N=1
##DATA TABLE= (X++(R..R)), XYDATA
      0.00000000     2147483000     1381120323     -220579140    -1528539197
      4.00000000    -1964360135    -1409128356     -314599954      705122039
      8.00000000     1195765607     1096262732      594972243       48073962
     12.00000000     -257397627     -308579072     -322007451     -486045165
     16.00000000     -754501933     -802592862     -360308653      485145185
     20.00000000     1280143024     1517312397      987954162      -77923626
     24.00000000    -1136404580    -1635668927    -1322695753     -381954930
     28.00000000      651657171     1223127684     1111203890      534558461
     32.00000000      -61953129     -359204851     -360805942     -305639406
     36.00000000     -374936853     -521934599     -530066292     -211237865
     40.00000000      390799316      984422671     1172999168      750735259
     44.00000000     -142816084    -1040166529    -1417649410    -1047139076
     48.00000000     -152971284      733904453     1132298882      913203857
     52.00000000      316760532     -241371721     -473738369     -371576493
     56.00000000     -159080407      -71187865     -172913115     -305512230
     60.00000000     -231131686      139247977      628583119      891117089
     64.00000000      661662309      -13973718     -768679943    -1146986746
     68.00000000     -909801266     -190793502      583375483      976553165
     72.00000000      812922215      273727671     -271340713     -510287769
     76.00000000     -394254377     -124115951       38188220      -20574434
     80.00000000     -173857281     -193717890       49973279      442316134
     84.00000000      697384391      560767029       34439789     -599530523
     88.00000000     -956350979     -795100402     -198209639      484479370
     92.00000000      858706960      739321442      249650930     -274452128
     96.00000000     -523934499     -421291305     -131182669       83617720
    100.00000000       77550850      -71889156     -154479012      -12974865
    104.00000000      302239543      555039599      503061620       97706963
    108.00000000     -451454342     -808188823     -722108330     -222981710
    112.00000000      400709735      783806475      714865952      271364786
    116.00000000     -246976351     -528171577     -456158296     -162336994
    120.00000000       92399017      133805643        2009109     -111936997
    124.00000000      -41337477      204513221      429720933      422360688
    128.00000000      115779387     -344149284     -677889138     -648007364
    132.00000000     -235619855      330476622      716116148      691112708
    136.00000000      288661308     -218885963     -514201986     -463997995
    140.00000000     -179800079       90820626      171546007       68495726
    144.00000000      -59587202      -57327713      104649625      303403048
    148.00000000      344907640      130722333     -253523764     -569942396
    152.00000000     -582706255     -239520976      271605511      640316531
    156.00000000      636455160      284300592     -179765929     -471203106
    160.00000000     -453613622     -201156210       83700647      211923902
    164.00000000      146221457       -5871133      -74451708       22270077
    168.00000000      199190726      279613965      137810728     -180957154
    172.00000000     -470534535     -507374240     -231661687      204744408
    176.00000000      540520486      565292684      277710247     -139841525
    180.00000000     -434189164     -446016815     -207778372       89903113
    184.00000000      246586476      193142805       25967929      -81054396
    188.00000000      -32748583      121385308      220518136      138460261
    192.00000000     -104992740     -355559529     -425998100     -233908943
    196.00000000      125326667      442337126      506835765      276692306
    200.00000000     -104936375     -400705550     -434152579     -217466778
    204.00000000       75744416      251215889      220874442       60309871
    208.00000000      -74724934      -72377960       48472895      159843720
    212.00000000      140052725      -36999910     -260649567     -359250715
    216.00000000     -224703913       81276387      371410955      455388087
    220.00000000      267358066      -77080604     -361499081     -419205037
    224.00000000     -238065590       44359723      242495992      249544161
    228.00000000      103967659      -54372458     -101436861      -22223418
    232.00000000       93029370      118719339        1088115     -181693876
    236.00000000     -280878445     -195297322       52512689      309967040
    240.00000000      402860749      255762501      -47828091     -322175988
    244.00000000     -402553108     -252102469       22664935      238124912
    248.00000000      272525316      140596345      -39387865     -127146889
    252.00000000      -82715424       32978266       91171104       26659569
    256.00000000     -118027373     -221621157     -171851701       27484194
    260.00000000      256279033      356972295      246855495      -22351648
    264.00000000     -285302261     -378644712     -252215423        6286347
    268.00000000      229472898      289110827      174105299      -15018068
    272.00000000     -141384947     -133687334      -29983225       61995402
    276.00000000       52840294      -50593391     -152138262     -145604935
    280.00000000       -7020370      184495515      289001907      222584703
    284.00000000        5159037     -229243739     -334260447     -240032532
    288.00000000       -7310768      210994631      287499099      191453800
    292.00000000        3377296     -143031768     -158636755      -64524697
    296.00000000       41179684       68748257         954137      -93748488
    300.00000000     -118201103      -25730634      121367328      220071214
    304.00000000      182294388       12519294     -189184155     -290547081
    308.00000000     -213663353       -7904804      195967923      276509630
    312.00000000      187837621        2634811     -150269898     -178468586
    316.00000000      -87446010       35891045       90820943       49060441
    320.00000000      -41761586      -92065385      -45894681       65547088
    324.00000000      156947678      141443532       16581765     -141223455
    328.00000000     -216279899     -159135451       -4173363      141227032
    332.00000000      191896384      128249597       -2082992     -108387254
    336.00000000     -130145047      -67751690       22539480       75520178
    340.00000000       65232001        8552811      -42741220      -48604810
    344.00000000       -1992188       58285704       76043867       25982195
    348.00000000      -57539062     -118622607     -102342511      -16078368
    352.00000000       90616938      145319594      113767605        8126485
    356.00000000      -99850262     -143142233      -92682550        5824265
    360.00000000       88193374       98505939       45088679      -27273379
    364.00000000      -58964275      -31621383       25413050       59914113
    368.00000000       39419020      -24230602      -87357902      -94480999
    372.00000000      -31587079       62376157      128575534      112689879
    376.00000000       23734826      -84154275     -136740050     -105396347
    380.00000000      -15995889       73681054      106731789       66967780
    384.00000000       -5273206      -55467217      -53851627       -9738008
    388.00000000       36149447       44485485        6459732      -49999950
    392.00000000      -68496466      -34879196       40243012       98015828
    396.00000000       96693709       27984896      -61532572     -118850997
    400.00000000      -99885686      -24554402       60845207      103217726
    404.00000000       77326916        9498843      -54434159      -69562070
    408.00000000      -34386003       18232447       43637730       25444132
    412.00000000      -20698896      -50146001      -35990137       19744177
    416.00000000       72959769       80260568       33540248      -41636021
    420.00000000      -96475550      -91656623      -30457382       51077452
    424.00000000       97163668       83361380       18922329      -48783850
    428.00000000      -77950637      -52008575        1127111       39602674
    432.00000000       40734916        6566097      -29473803      -35640639
    436.00000000       -1938487       41242881       59624352       33727518
    440.00000000      -24376588      -72463986      -78150172      -30109223
    444.00000000       39510550       86689387       79853274       24971917
    448.00000000      -40908275      -76456346      -62050131      -11773969
    452.00000000       37004858       51878889       27084543      -12761621
    456.00000000      -34123856      -21099846       10956556       38662413
    460.00000000       32535122       -7335885      -47246887      -59837427
    464.00000000      -28778454       26320426       69485945       70989595
    468.00000000       25781137      -33118829      -70793518      -63053942
    472.00000000      -16570016       35566243       58533828       40323567
    476.00000000         -10801      -33508796      -35628846       -9263527
    480.00000000       20266105       30537747        8705782      -23243287
    484.00000000      -42074237      -28025791       11644513       48257347
    488.00000000       56295748       25585690      -21279683      -59510621
    492.00000000      -56671235      -18808638       32312365       59299311
    496.00000000       49091870        9089497      -31873508      -44071300
    500.00000000      -23762776        8217055       28552547       21927335
    504.00000000       -4085020      -28013027      -27855635       -2918660
    508.00000000       28375097       41996168       25112238      -12132302
    512.00000000      -48593909      -51958019      -22176783       22969102
    516.00000000       52638470       49491949       14500180      -24185524
    520.00000000      -43673619      -31198645       -2752345       24811657
    524.00000000       26901276       11740345      -13395147      -23852911
    528.00000000      -11797803       13149130       29870713       25155140
    532.00000000       -4084016      -34366097      -42997633      -22093309
    536.00000000       15766338       43335556       45544168       20281626
    540.00000000      -18400406      -41993172      -34275822       -8611634
    544.00000000       21995768       32342907       21674200       -4376497
    548.00000000      -20223448      -15958874        3580932       20631149
    552.00000000       22446068         361790      -23197208      -37184015
    556.00000000      -24851274        6436901       34694767       42561243
    560.00000000       23335948      -12621974      -40354829      -42260584
    564.00000000      -15725343       16300534       33408118       27892057
    568.00000000        6172241      -15124774      -21595346       -8736282
    572.00000000       11104903       19539769       11212144       -9120214
    576.00000000      -24937527      -20880358          72215       24472063
    580.00000000       33706822       22132559       -8695411      -34589852
    584.00000000      -38207980      -18903714       10941764       30229781
    588.00000000       30851798       12463617      -12117144      -24916415
    592.00000000      -17768191         270392       17574295       16688957
    596.00000000        1693638      -13896841      -19622124       -5319701
    600.00000000       14866173       27241742       19788351       -3835712
    604.00000000      -24832264      -32381797      -21592388        5816073
    608.00000000       25867312       30272087       15084151       -7514495
    612.00000000      -23597233      -24135182       -6788967        8603465
    616.00000000       15520865        6208096       -6343514      -12340974
    620.00000000       -8181249        8203118       20107237       16770258
    624.00000000         247925      -17715456      -27091475      -19464103
    628.00000000        1250070       23752760       28771088       17772427
    632.00000000       -5781157      -21122351      -22721599      -10325690
    636.00000000        6925993       14131503       12480624        -129522
    640.00000000       -9632889      -11691268        1734132       13185891
    644.00000000       16149678        4433005      -10247901      -22089515
    648.00000000      -19565192        -627788       18939770       27727413
    652.00000000       19909143         950674      -15505368      -24562506
    656.00000000      -16094976        1125628       13042901       15542218
    660.00000000        7490314       -6676742      -10343611       -5199613
    664.00000000        3821223        9134777        4709080       -5374878
    668.00000000      -14576435      -12429590       -2020635       13855803
    672.00000000       22841664       17041950        1740315      -16357695
    676.00000000      -21836932      -15626359         227042       14203741
    680.00000000       16747780        8339140       -2458173      -10706362
    684.00000000       -6620807          53788        5680869        5806940
    688.00000000        -920758      -11227790      -14345684       -3898806
    692.00000000        9663312       17519487       15126343        3113347
    696.00000000      -12214443      -21244962      -15004692       -2536781
    700.00000000       11122212       18124409       11214910        -678464
    704.00000000       -8213359       -9434587       -3351382        3626619
    708.00000000        5109174        -586050       -6842708       -8899872
    712.00000000       -5195689        5497631       13036520       12392486
    716.00000000        4862435       -8724501      -17459000      -15377850
    720.00000000       -4188490        9521060       16076811       12562165
    724.00000000        3015873       -6039914       -8503678       -2919163
    728.00000000        1641029        4743263        2954591       -2582663
    732.00000000       -6476427       -4194108        5191356       10691922
    736.00000000       11884609        4760532       -6565715      -16998825
    740.00000000      -16024801       -5537835        7743105       13395181
    744.00000000       14073527        5015890       -5495089      -10075274
    748.00000000       -8976896        -722307        4742287        3273676
    752.00000000        -461696       -2909531       -3625435        2330949
    756.00000000        6982377       11268949        3289511       -3944797
    760.00000000      -12635170      -12622021       -5888660        4600092
    764.00000000       13082589       13444215        4805633       -4343189
    768.00000000      -10352127       -7597757       -2525181        3114981
    772.00000000        4526084        1178828       -2109168       -2051462
    776.00000000         537573        5092057        8478212        4151346
    780.00000000       -4960077       -9996319      -12484728       -5361265
    784.00000000        5410484       11885755       13357890        7177674
    788.00000000       -4685290      -10591904      -10736412       -5314586
    792.00000000        2463616        6863139        4991844         584518
    796.00000000       -2065153       -1601870        3125059        5479254
    800.00000000        2894559       -1996275       -6515895       -9870108
    804.00000000       -5760409        2621662        9302631       12481332
    808.00000000        7781414       -1081223       -8335769      -10360520
    812.00000000       -5591359        2087923        5863935        6940696
    816.00000000        2871938        -309301       -2975933         440456
    820.00000000        1439693        1286009       -1573857       -5644658
    824.00000000       -7019281       -4718366        2903629        9451784
    828.00000000       10430522        6496802       -1529525       -9063301
    832.00000000       -9893448       -5979701        2449308        6065073
    836.00000000        8514351        3649383       -1128371       -3619788
    840.00000000       -3202980        -261452         459633         -65298
    844.00000000       -1663737       -4934645       -3226220        1540045
    848.00000000        6605408        8637883        5739258       -1774398
    852.00000000       -8174971      -10280622       -6040620        2458959
    856.00000000        7155110        8826627        4199907        -469550
    860.00000000       -3820758       -3893192       -1383185        -168877
    864.00000000         360692        -784185       -2468720       -2101678
    868.00000000         551136        6095380        6910646        4996133
    872.00000000       -1325905       -7572455      -10879894       -6306761
    876.00000000         349434        5816331        7812491        6537295
    880.00000000        2748393       -3567345       -5062182       -2968178
    884.00000000       -1063678        1923484        1644975       -1000327
    888.00000000       -1331093         705220        4182596        6142928
    892.00000000        3755062        -943524       -6019826       -9371867
    896.00000000       -5732815        -112190        5824900        9182675
    900.00000000        6979239        1291754       -3351931       -4883772
    904.00000000       -2798750       -1011871        1534455         977992
    908.00000000        -170340        -496581         662564        3567703
    912.00000000        4347652        3950906       -1234115       -5382310
    916.00000000       -8243996       -5225488       -1874400        6296344
    920.00000000        8888611        7827534        1847043       -3481156
    924.00000000       -5689622       -5127001       -2701506         745823
    928.00000000        3257219        1324122        1162137        1499654
    932.00000000         865734        1686518        2676678       -1447067
    936.00000000       -4488180       -6167291       -4997870        -145914
    940.00000000        5020606        7852569        7052588        1672670
    944.00000000       -3802189       -6477738       -6682067       -2355555
    948.00000000         900231        3305155        3350758         150329
    952.00000000          51966        1034715        1633521        1168867
    956.00000000          41085       -5752786       -5020265       -3616791
    960.00000000        -345894        4515265        8376512        5994635
    964.00000000        1769249       -3391427       -6555128       -7407972
    968.00000000       -2379087        2162204        4311965        4097282
    972.00000000        1980908        -622879       -1127158        -171995
    976.00000000         417487        -218795       -1962438       -2944668
    980.00000000       -1984307        -401822        4170428        5715682
    984.00000000        5736547        1555940       -3031873       -7332757
    988.00000000       -4285914       -2228020        2127293        5554634
    992.00000000        4745829        2358524         511781        -120670
    996.00000000       -2672224         259387       -1852240       -1418809
   1000.00000000       -1950220       -2560883          19122        3285346
   1004.00000000        3850228        3168574         600236       -2768593
   1008.00000000       -4988347       -5696319        -682048        1921695
   1012.00000000        4341104        5276229        2183647       -1426393
   1016.00000000       -2425426       -2429058        -600836         411913
   1020.00000000         312260        -337376       -1276134        -107397
   1024.00000000        1513627        3170752        3997682         567867
   1028.00000000       -2034696       -4081978       -3954126       -1978265
   1032.00000000        2369856        5555710        4718723        2250168
   1036.00000000       -1028510       -3146273       -3596065       -1106091
   1040.00000000         441149        1545826         230978         242189
   1044.00000000        -698663        1177211        2000032        1325042
   1048.00000000         443858       -1958681       -2767798       -4206069
   1052.00000000       -1956559        2063105        4291231        3568377
   1056.00000000        2544993       -1612682       -3293927       -3378977
   1060.00000000       -1492652          51024        2603639         902926
   1064.00000000        1287761         989374         606842         438310
   1068.00000000        1586988         808008       -1719590       -2390588
   1072.00000000       -3113893       -1619277        1170726        3117813
   1076.00000000        3758807        2157316       -1501762       -3117615
   1080.00000000       -4366586       -1993151        -126394        2139032
   1084.00000000        2834924        1879585         -24485        -810898
   1088.00000000        -278692        -398029          35944        -882555
   1092.00000000       -2279059       -2454631         -52537        1891280
   1096.00000000        2569344        3428086        2370130       -2242993
   1100.00000000       -4238216       -4345791       -2956664        1481140
   1104.00000000        3330578        3807612        1754319         599894
   1108.00000000       -1291159        -485288       -1715867         214570
   1112.00000000        -381995        -716729       -1344829         799846
   1116.00000000        1800601        2863910        3001996        1884255
   1120.00000000       -1070068       -3464591       -3742728       -2604816
   1124.00000000         790263        3442634        3500150        2617069
   1128.00000000         283023       -1976399       -2082051       -2296269
   1132.00000000        -986754        -392645         323011         129896
   1136.00000000        1167688        2055121        2742836        2545634
   1140.00000000        -296260       -2104682       -2652338       -2917589
   1144.00000000       -1392570         288903        4472104        3474981
   1148.00000000        2855125         629991       -2704261       -2727643
   1152.00000000       -1345033        -555785         240281        1094300
   1156.00000000         943408        1336965         299306         774693
   1160.00000000         -98943        -606548       -1613089       -2098369
   1164.00000000       -2139074       -1501916        1388248        3759332
   1168.00000000        3821968        2351742        -749841       -3104644
   1172.00000000       -2878261        -692900        -104051        1215490
   1176.00000000        2183327        2421406        1563791        1165986
   1180.00000000         275409        -746477        -593620        -774362
   1184.00000000       -2199628       -1710056          17606        1455554
   1188.00000000        2548069        3049008        1408227        -468658
   1192.00000000       -2110040       -2255303       -2229904        -470681
   1196.00000000        1022313        2416719        1483990         989848
   1200.00000000         -61709       -1418165       -1285558        -345382
   1204.00000000        -683256        -646546       -1521410         -13493
   1208.00000000         718085        1237237        1796556        1063627
   1212.00000000        -402475       -1731351       -2763901       -1824739
   1216.00000000        -322367        1252572        2067927         963635
   1220.00000000         340217        -115853       -1282198        -691954
   1224.00000000        -787554         359669         264119         737733
   1228.00000000         662393         957247         854911         620635
   1232.00000000         805061        -903607       -1995324       -2136128
   1236.00000000        -865677         549246        1646919        1500960
   1240.00000000        2102978         -87837       -1293702       -2117925
   1244.00000000       -1250653         185298        -672994         652029
   1248.00000000         759267         813407         736479        1365019
   1252.00000000         214385        -266512        -844767       -1038959
   1256.00000000       -1323660         -21529         451783        1712164
   1260.00000000        1694670         297805        -206675       -1305753
   1264.00000000       -1096894        -951677        -476333         667052
   1268.00000000        1431735         699078         488420        -344825
   1272.00000000         -47058         183748        -431416       -1506900
   1276.00000000       -1274729        -223533        -366928        1138622
   1280.00000000        1313705        1449035         960763         429978
   1284.00000000       -2098202       -1880589       -1663185         129382
   1288.00000000         472596        1396508        1344816         196294
   1292.00000000        -919596        -513038       -1179971        -735221
   1296.00000000        -329758        -123633        -278074         628940
   1300.00000000         650506        1000047         486983          93487
   1304.00000000        -929766        -975618        -657518       -1029942
   1308.00000000         766099        1311959         878968        1378112
   1312.00000000         268360         -15662        -511811       -1253346
   1316.00000000        -998423        -837590        -271016         231253
   1320.00000000        1198763         573525         764090         117077
   1324.00000000        -336952        -413536        -975396       -1330637
   1328.00000000        -255496         406091         886434        1513258
   1332.00000000        1713163        -645870        -768241       -1310355
   1336.00000000       -1079061        -231881        -429320         -91519
   1340.00000000         807967         971508         181769         150541
   1344.00000000         201166        -676317        -709477       -1231226
   1348.00000000       -1054981        -331160        -104416         649102
   1352.00000000        1883241         685475        1024142        -719122
   1356.00000000       -1232147        -695372       -1208078        -468301
   1360.00000000         140761        1073378         904550        1226770
   1364.00000000        1281785         427574         668678        -392838
   1368.00000000       -1337534        -551423        -113380        -147728
   1372.00000000         159073         941472         673347         501211
   1376.00000000         205512        -811546        -820299        -795159
   1380.00000000        -571635         -35256         799189         576582
   1384.00000000         649931         116079          62183        -482190
   1388.00000000          24962        -970906        -708131        -329870
   1392.00000000         649820         771696         415224         833254
   1396.00000000         286187        -159837        -268975       -1396072
   1400.00000000          45548        -230902         917248         405823
   1404.00000000         861611         497114         371877        -181695
   1408.00000000        -237278        -651365       -1442123        -333589
   1412.00000000        -128560         546698         521227         936443
   1416.00000000         585561        -473091        -217927        -399278
   1420.00000000        -897641         -62272         597273          29515
   1424.00000000        1115847         980359         377231         467297
   1428.00000000        -837960         -95052        -383525         -36118
   1432.00000000        -448396        -230339           7083        -153043
   1436.00000000         360215         593138        -230882        -944666
   1440.00000000        -349055        -566000         -68460         140383
   1444.00000000         167696         655713         920996        -270321
   1448.00000000         380729        -405380        -717713        -235675
   1452.00000000        -900295        -176927         548884         892825
   1456.00000000         505747         471176        -309513        -271247
   1460.00000000        -680839       -1487911        -253526        -296360
   1464.00000000         415905         516546         387548         455660
   1468.00000000         326921        -402272          72983        -485587
   1472.00000000        -117949        -301495        -227044          94579
   1476.00000000         603622        1021330         183837         180160
   1480.00000000        -523294        -815099        -473563         151108
   1484.00000000         479870         619972         437627         -91543
   1488.00000000         456278          30789        -501537       -1279188
   1492.00000000       -1049500         -67341        -108284         230715
   1496.00000000         495383         508519         216179        -319450
   1500.00000000          65131        -493672        -839344         174250
   1504.00000000         122641         411539         946172         379909
   1508.00000000         387474         -14354        -191141        -827345
   1512.00000000        -605578         163978        -332479        -162066
   1516.00000000         674466         844004        1427591          90584
   1520.00000000         197318       -1069337        -617655        -503638
   1524.00000000        -117886         342478         330569        1090878
   1528.00000000          92746         832094        -748264       -1222614
   1532.00000000        -766352       -1150388        -418948          78226
   1536.00000000         361027         534003         231770        1216438
   1540.00000000        -399490        -319120       -1032922        -764360
   1544.00000000        -355520        -289360         180526         466093
   1548.00000000         389763         394619          32123        -282229
   1552.00000000       -1258229        -168471        -370197        -231519
   1556.00000000        -185715         283730         900704         351663
   1560.00000000         430587         204323        -217472        -595820
   1564.00000000        -588807        -604862        -420497         345025
   1568.00000000         153080         314148         248930        -353675
   1572.00000000         122246        -380707        -284808        -615989
   1576.00000000         181462        -434724         255395         627976
   1580.00000000         861665           8438          -9162        -225571
   1584.00000000        -316347         -23615        -464936         117778
   1588.00000000        -340533         360729         571788         416474
   1592.00000000         150002        -638172        -807423        -415583
   1596.00000000        -135389          26904         -57720         -75697
   1600.00000000         259589         479206         439667          27766
   1604.00000000         251730        -340720        -665268        -618873
   1608.00000000        -122936         174415         703049         426571
   1612.00000000        -282202         -83729        -420193         142490
   1616.00000000        -581446         -84081         432792         183186
   1620.00000000         517322         243245         156105         -70535
   1624.00000000        -347280         129495        -650744        -359052
   1628.00000000        -538596         -39044         530613         463465
   1632.00000000         382722        -170278        -507720        -502317
   1636.00000000        -766841        -368669        -296378        -232160
   1640.00000000         393285         574989         476011         349120
   1644.00000000         242850          48116        -237118         -84093
   1648.00000000        -806209        -342072        -362496         305420
   1652.00000000        -114572        -434802         389764        -353562
   1656.00000000        -716967        -332802        -369738        -478386
   1660.00000000        -331158         207835        -262292         171719
   1664.00000000         470399         289966        -623742        -188744
   1668.00000000        -427810        -774115          46634         458818
   1672.00000000         476269         219645         461301        -120770
   1676.00000000         -47728        -255675        -337001         358665
   1680.00000000         111754         352318         339150         326282
   1684.00000000         -18352        -615667        -208617        -449404
   1688.00000000        -766708        -189393        -357105        -278049
   1692.00000000          27560         110336         380068         193803
   1696.00000000        -250664        -300880        -334759        -174828
   1700.00000000         278944          83630          37095          83977
   1704.00000000         148148        -295164        -211189        -486934
   1708.00000000        -183363         219705         -76576         426627
   1712.00000000         -14726         385390        -100208           7445
   1716.00000000         153297        -264897        -173730        -136889
   1720.00000000         179867        -285641         265688          77294
   1724.00000000         772826          35842        -450055        -413749
   1728.00000000        -173632         340076         -21549         106928
   1732.00000000         266131        -567959        -403340         444138
   1736.00000000         358561         -40355         289377        -688049
   1740.00000000        -601255        -288525         141934          46234
   1744.00000000        -180052          50920        -119797        -337910
   1748.00000000        -257077         227045         -31476        -190108
   1752.00000000          -7673        -251734        -119315         231312
   1756.00000000        -124340        -333498          81543        -281518
   1760.00000000        -287175         -29114        -508331         -39955
   1764.00000000         158433         159995         -38759         318017
   1768.00000000         128279        -551883        -491753        -198198
   1772.00000000        -254913          79594         -33160        -181403
   1776.00000000         276691          32638        -202980        -252286
   1780.00000000         -92121         -46590          88611         -91667
   1784.00000000         563224         105482         617586        -254448
   1788.00000000         430883           3747        -269343        -383511
   1792.00000000        -150279        -150187         355398          34113
   1796.00000000        -287267         156718          -6937          61259
   1800.00000000        -484475          33652         260403        -139149
   1804.00000000         178985         196694         316561        -195041
   1808.00000000          18582          -8633         120636        -149443
   1812.00000000        -272932         452702         -13877         625849
   1816.00000000         239372         339471          75453         -96210
   1820.00000000          76391         -45911        -189942        -559104
   1824.00000000        -256035         209656         303813          62474
   1828.00000000         223723        -204202        -201392        -228566
   1832.00000000        -520395        -209198        -457974         147508
   1836.00000000         270746         137422        -341435          90616
   1840.00000000        -376197         -46966        -411603         -21002
   1844.00000000        -166586        -593386         -25288         171874
   1848.00000000         333688          12106         149362        -196368
   1852.00000000         -16663        -466160        -441123          41126
   1856.00000000         -87636         362634         -48161          53981
   1860.00000000        -269859         -34133            919        -395495
   1864.00000000        -256433        -138440        -503588         246971
   1868.00000000         287989        -250976         279135         -42710
   1872.00000000        -600391        -532741        -307445        -159133
   1876.00000000        -134498          26627          80611         191185
   1880.00000000        -247749         138930        -523388        -238402
   1884.00000000        -186055          71906        -104263         205699
   1888.00000000         418714          29489         -49861         363239
   1892.00000000        -271245        -540221         167149        -233433
   1896.00000000        -427991         315281         159751         656185
   1900.00000000         -64754         206364        -252563         -22295
   1904.00000000        -783086        -151535        -137271         -31376
   1908.00000000        -410439         289431         165765          -1174
   1912.00000000        -256150        -283012        -237235        -591629
   1916.00000000        -315540        -264260         289812          98394
   1920.00000000         596862         127955        -244767        -460159
   1924.00000000        -450807        -146536         126817        -188223
   1928.00000000          36651         300934         -88152         499630
   1932.00000000         229698           2679        -116139        -517611
   1936.00000000        -317255        -224640        -100919         153198
   1940.00000000         166667         -10774         226901         340261
   1944.00000000        -312917        -238365         -68612        -338099
   1948.00000000        -134772         -98743         137605         362477
   1952.00000000        -242771         -13310          59790        -183561
   1956.00000000        -160300          43380        -388275         132768
   1960.00000000         -49776         -72491         -21417         379685
   1964.00000000        -383248        -297033        -413149        -457962
   1968.00000000          10526        -177053          64425         588274
   1972.00000000         316697         337323         325510        -184447
   1976.00000000        -212843         115890        -529674        -270494
   1980.00000000        -212182         -61476         160226          82580
   1984.00000000         356624          88712          25867        -534429
   1988.00000000        -358068        -123394        -271290         388947
   1992.00000000         129854         -32788         126993         180737
   1996.00000000        -193948         -71850        -178374        -616918
   2000.00000000        -473219          -3113         366366         206628
   2004.00000000         473689         351801        -381287        -278977
   2008.00000000        -226197        -222072        -222492          92020
   2012.00000000        -120652         212471         218488         -63172
   2016.00000000        -235479          74461        -320387        -318337
   2020.00000000        -312649        -239318        -228569         193248
   2024.00000000           -132         155755         337177         -17342
   2028.00000000           1238        -640634        -489796        -144618
   2032.00000000         184745         239627         178795         246790
   2036.00000000         109172         -99298        -307081        -335625
   2040.00000000        -342338        -239374           2651         119737
   2044.00000000         299426         308661          32513          -3979
   2048.00000000        -110270        -633200        -275773        -303060
   2052.00000000          32292        -140099         -31852         336842
   2056.00000000         501929         427716          71475         175782
   2060.00000000        -399577        -275990        -204780         -41188
   2064.00000000          28472          95961         131292         249603
   2068.00000000          31734         -20363          87958        -219943
   2072.00000000        -250193        -269359         282080         281090
   2076.00000000         183145         180723           5998        -283488
   2080.00000000        -118365        -120329        -143929        -241903
   2084.00000000           6704        -191756           6476         -71307
   2088.00000000         355844         -21975        -144873        -259716
   2092.00000000        -157096         -87683          43360         -47737
   2096.00000000         152945         -59945         131828           8906
   2100.00000000        -403575        -314457        -288309         291706
   2104.00000000        -393171        -147529         335189         -28306
   2108.00000000         117704        -138603        -223545         -21833
   2112.00000000        -309195        -124919         -39970           7252
   2116.00000000         187806         -22463         120424          76593
   2120.00000000         -69359          -2246         -14180        -116740
   2124.00000000          40354        -182204        -105639          60590
   2128.00000000          80955         -11886         118390        -148252
   2132.00000000          94941         -58832        -357706         -47674
   2136.00000000        -255030         337952        -177636         311629
   2140.00000000        -285626         -71291        -347883        -249364
   2144.00000000          10549          23724          48533         180159
   2148.00000000          35285         133583          44540        -154385
   2152.00000000          61530        -140315        -120306        -109430
   2156.00000000         -75789          21387         -32773         119255
   2160.00000000         135446          49558        -322843         -81439
   2164.00000000        -277352        -173339          40792        -228573
   2168.00000000         131234          -3699          80290         -25356
   2172.00000000         109884          -6842        -168385          41959
   2176.00000000        -234342         -38274        -311336        -128475
   2180.00000000         336380         184114        -210516         -53994
   2184.00000000          17320        -182654        -200962        -105760
   2188.00000000          81429         260092        -217092         -72440
   2192.00000000          78742        -192037         240569         -57498
   2196.00000000        -316684        -226638        -113574          -5985
   2200.00000000        -196153          38862         -41740          16007
   2204.00000000        -112254        -258104        -228969         117944
   2208.00000000          65614         218298         -87648          51890
   2212.00000000        -164856         -84317        -121494        -190552
   2216.00000000        -215478        -403504         -23015         -66608
   2220.00000000          60130         191597         -79200        -279784
   2224.00000000        -191504         -52184        -244762        -219795
   2228.00000000        -170670         105168         200317         -31866
   2232.00000000        -309163          34051        -126922        -165257
   2236.00000000         -24902          43982          54919         183182
   2240.00000000         114320         -12307        -214881          -7023
   2244.00000000           5234         -13363          14557        -191509
   2248.00000000         -29928          60113         152746          61166
   2252.00000000        -182327          11158         -54755        -197787
   2256.00000000        -183508         -35233          -1150         -80620
   2260.00000000          77633           2299         -73000          63805
   2264.00000000        -451114        -351394        -131138        -175381
   2268.00000000        -262422        -195898         200985          77307
   2272.00000000          13399          23304        -266811         210529
   2276.00000000          50663        -147897          -7452           9880
   2280.00000000         -68298         -75978        -101939        -329953
   2284.00000000         -64421        -201497        -139862         142455
   2288.00000000        -203750         -63902           -222          87862
   2292.00000000          92390         -48607          27299          62074
   2296.00000000        -109388        -260154         -35137        -162012
   2300.00000000         162983          73838          51436        -123307
   2304.00000000         -74301          61630         -41650         168693
   2308.00000000        -111889         -48218        -196619        -288300
   2312.00000000        -150627        -179887          14939          -8359
   2316.00000000        -174616        -192181        -261093         251069
   2320.00000000         -43064        -149341          85548          55861
   2324.00000000         -77417        -150975         -14298          93105
   2328.00000000        -120803        -107325        -297232          54400
   2332.00000000         336480        -195930         169368        -115997
   2336.00000000         -28853           3179         -46418        -101351
   2340.00000000          -4882          64402         -41171        -335878
   2344.00000000          84840        -155899         -50550         156497
   2348.00000000          43566        -330493         135786         -93320
   2352.00000000        -164710           1801         174661        -175711
   2356.00000000           8261          48271         -27233        -145770
   2360.00000000        -165685         -71488        -385291         -39351
   2364.00000000         -66670        -153274        -148123        -283584
   2368.00000000         101061        -191755         -64418        -159826
   2372.00000000        -197809        -104480         -96424        -107577
   2376.00000000          -9842         -93528          72695          -2928
   2380.00000000        -198957         142184         -58254        -106298
   2384.00000000          15567         -74878         164542          76734
   2388.00000000         -67000        -249712          75026         -23619
   2392.00000000         -61617          10678          86479          -8563
   2396.00000000          64175         -68100          72600         -97525
   2400.00000000         158935          -5327         116126        -231804
   2404.00000000        -139982          93847          56555          60860
   2408.00000000          -4344         -77272          93510         -54825
   2412.00000000         -61204        -127172         -68174          11771
   2416.00000000         -34414         -25238           9381          -7534
   2420.00000000        -167685         -33891          67976        -114737
   2424.00000000         -45698         -35087           5586          24950
   2428.00000000         -78130          94453          47249         -79696
   2432.00000000         -51900        -106451        -121387         -71347
   2436.00000000         -77420         105874         -38140          23208
   2440.00000000          14416         268852          20782         -93457
   2444.00000000          23524         -28495          -7722         -46412
   2448.00000000            373         169754          95024          77099
   2452.00000000         -46816          21836         144506          92422
   2456.00000000         -67249         -73791          88360         147932
   2460.00000000          62349         -91224          52541          62250
   2464.00000000         -62322          57493         101074        -172979
   2468.00000000          17339         -69389         -25560         -76767
   2472.00000000        -224343         -28922          87786         -55295
   2476.00000000        -136958          50348          99354          53172
   2480.00000000          -6164          30406         -65746         -89783
   2484.00000000        -129736         -48141          96067         -19298
   2488.00000000         -66982          53882         -33705         -71780
   2492.00000000          17258        -219495        -167677        -104231
   2496.00000000        -206958         -23274          -6131         -78202
   2500.00000000        -117142          65691          49732        -143608
   2504.00000000          18978           2505        -117444          26698
   2508.00000000        -130727          75187         151334         109520
   2512.00000000        -212518          33918         -27375        -214704
   2516.00000000          27988        -223070         -57829          69033
   2520.00000000          62941          53670         158113        -130445
   2524.00000000          13192         -44966        -103561         -23525
   2528.00000000         -61842         -42442        -232473         146983
   2532.00000000        -129864          65456          13440         -86377
   2536.00000000          85825        -149409          -8208        -128726
   2540.00000000         -86089          30887          40023           5459
   2544.00000000         118113        -170342         -61344         -34666
   2548.00000000         -64889        -138415         -16230         -58690
   2552.00000000        -179186         192037         -36368         -57364
   2556.00000000        -181861         -57504          -4503        -163445
   2560.00000000         -70924           2125         -99866         197758
   2564.00000000         -17816         -50513         -75423        -116065
   2568.00000000        -106425         -98400        -119266         -43400
   2572.00000000        -101898         170350          58750          57381
   2576.00000000        -121520         -38210           8903         -79154
   2580.00000000          -4323          38204          16431         -28437
   2584.00000000          -8285         198693          -1332         -34741
   2588.00000000        -226810         -25184         -23301          89226
   2592.00000000          16804         -58062          37586          36686
   2596.00000000         -21686        -135951         -93744        -181426
   2600.00000000          64060         -55720        -236202        -172563
   2604.00000000          11440           7073         -35870         -14194
   2608.00000000         -60201          43015         -80489        -114007
   2612.00000000          48045          88099          76921          53536
   2616.00000000         -98489         -51040        -280975           3719
   2620.00000000         -33090          39447          93440        -142264
   2624.00000000         -16486         -64926          55577          63225
   2628.00000000         -26235        -123271        -105769        -192134
   2632.00000000        -240656           3874         151358          92042
   2636.00000000         -54105         -82353        -142653        -123155
   2640.00000000         -92256         -98736          11378         -30745
   2644.00000000          32903        -124091         -28655          -1597
   2648.00000000         118991         -74863         -32827        -125259
   2652.00000000        -132033        -141369        -109270         138038
   2656.00000000         -26226          12882         -66834          -6861
   2660.00000000         -24921         -12121        -132770         112835
   2664.00000000          -2202         -32405        -153151         116853
   2668.00000000         -80905         122934          42925         -34939
   2672.00000000          12430        -114424        -118989         -26774
   2676.00000000        -175703        -112918         -16249        -181118
   2680.00000000          63191        -125084          74985         -96179
   2684.00000000        -104010          -1746         -39020         -63626
   2688.00000000        -106098         -70947          60060         -52750
   2692.00000000          32947          79958         -10103          81215
   2696.00000000         -90033          26462          41781          25716
   2700.00000000        -188140         -86274        -129786          48791
   2704.00000000         -32783         -58606         111721            590
   2708.00000000          68553        -115022         126937         -34184
   2712.00000000         -98518          63324          36511          72081
   2716.00000000         -19824          22998        -121844         -88360
   2720.00000000          63370         -40463         -51396         -16022
   2724.00000000           7970          28497         112272         -61160
   2728.00000000          -1287          25626          11730         -14151
   2732.00000000         -13466         267105         -60798          67593
   2736.00000000          27983        -105717         -71247         -57850
   2740.00000000          26707          25569          22738         -96294
   2744.00000000         -87701          50858         -85819          53441
   2748.00000000         -91867          -8635        -140001          -7484
   2752.00000000           -196         -51637         140340        -126689
   2756.00000000         105989          15648         -38598          62395
   2760.00000000          23091          54380         -55873         -77558
   2764.00000000         -71331         -17754        -150067          69229
   2768.00000000         120848          41481         -89893        -100907
   2772.00000000         -64955          23188        -101027         -83961
   2776.00000000          79527          50123        -115409        -124474
   2780.00000000        -126479          19069            456          20802
   2784.00000000          59216          23294         -86590         -57326
   2788.00000000         -60390        -115886         -68676          34270
   2792.00000000          36706        -101758        -104919          13087
   2796.00000000           7294          10828          42098          64908
   2800.00000000         -83813         -14526         -40776         -59593
   2804.00000000          32463         -21677          14789          39020
   2808.00000000         -32388         -66126         -21855         -32927
   2812.00000000         -63731          26043         -62220         -67388
   2816.00000000         -53814          18711          96405         -49909
   2820.00000000          72583          -1240          44461        -187756
   2824.00000000          66899          63613         122866          54895
   2828.00000000         -26839          10550         -34427         -55864
   2832.00000000           5300        -103109         -76887        -107552
   2836.00000000          39035          44507           -690          44464
   2840.00000000          21359         -20378         -15509         -19257
   2844.00000000        -105518         -35897          16309         -27982
   2848.00000000          49893          63176          46509         -69556
   2852.00000000         -83242         -29854         -26507          20003
   2856.00000000          -2984          12195          -6632         -16394
   2860.00000000         -15784          75410         -62654        -131390
   2864.00000000        -123817          27810         -35072         -26260
   2868.00000000          15600         -36837         -42606         -53709
   2872.00000000          -6120         -18976          29162          20919
   2876.00000000         -85251         -16786         -32346         -47484
   2880.00000000         -19429          18296          -7674          32510
   2884.00000000        -145410         -41121         -26719          -3578
   2888.00000000        -107757           7435          12149          79927
   2892.00000000         -41454         -41671          51656        -118122
   2896.00000000         -55499          -7603          47922          32252
   2900.00000000           2572          24686         -56358          37339
   2904.00000000          55699          -4834        -120536         -18792
   2908.00000000          42815          14512          13792          70319
   2912.00000000          98341          18970         -17495          -6102
   2916.00000000           7470         -44911          -1358         -45564
   2920.00000000          -7248          10083         -18981          94300
   2924.00000000         -19373         -98955         -39215         -45114
   2928.00000000          27373        -203027         -44228         -17005
   2932.00000000          30554         -11538          85595         -46420
   2936.00000000        -158248         -20201        -144610          -5984
   2940.00000000          33495         -38355          40054         -22361
   2944.00000000         -88119         -16842           2810           9197
   2948.00000000         -11646        -154234         -91305          -4502
   2952.00000000          41155          19035           9999         -78337
   2956.00000000         -84234         -76434          -4389           5555
   2960.00000000         -75511         -23424          58251          22160
   2964.00000000          64787          82648         -70970          16894
   2968.00000000           5307           9308           6222          54990
   2972.00000000          71780          59908          16270         -50671
   2976.00000000         -33034         -53932        -111418          44318
   2980.00000000          14426         -85274         -10085           4591
   2984.00000000          62209          19560          -1030         -64046
   2988.00000000         -31917           9456          35074         -70535
   2992.00000000          28198         -62186          -7816          27955
   2996.00000000          78740           -545          31667         -84080
   3000.00000000         -86585         -16933          20725          45148
   3004.00000000          40744         -71250         -53372          15198
   3008.00000000           3007         -41680          19221        -127588
   3012.00000000         -19112         -40662          21525          44349
   3016.00000000         105536          14214           4945         -49072
   3020.00000000         -40488          57032          47462         -18538
   3024.00000000          46103         -35230         -20801         -29818
   3028.00000000         -66724         -12138         -70272         -48027
   3032.00000000         -38094         -71771          24677          69852
   3036.00000000          29754         -22612          -3042         -12581
   3040.00000000         -21279            176        -106737         -68118
   3044.00000000         -20084         -84026          58059          36112
   3048.00000000          13758         -27100         -23660         -72593
   3052.00000000          41916          21896         -55540         -64630
   3056.00000000          43028         -28351          22364         -55537
   3060.00000000         -37882         -21475         -72111           -946
   3064.00000000         -19707          25803         -37415         -66238
   3068.00000000          24375         -60950          53520         -36008
   3072.00000000         -77386          17015          -3208          31736
   3076.00000000           3337          36770         -32935         -20174
   3080.00000000          -5997          36697         -77666          -3268
   3084.00000000          -4005          20403          94431         -79490
   3088.00000000          36473           6652         -36876         -92457
   3092.00000000           5015          15234         -67490          13780
   3096.00000000          -9726         -15846         -83074         -69863
   3100.00000000           7002          24872         -67906         -29847
   3104.00000000         -47006         -35451          34865         -26538
   3108.00000000         -68158         -38718          28907         -34894
   3112.00000000         -17231        -103338         -39842           1902
   3116.00000000         -44513          -8219          36407          31063
   3120.00000000         -42252          45977         -34741         -37156
   3124.00000000         -73953         -48452         -84215          17043
   3128.00000000         -77803         -10355          52493          11286
   3132.00000000         -50237          -2086         -16858         -66917
   3136.00000000         -56933          -9438          47545          19842
   3140.00000000         -13645          15034          14260         -10803
   3144.00000000         -25672        -112669         -54254         -54920
   3148.00000000         -53504          20947          26117          49572
   3152.00000000         -11664          16548         -18765         -37817
   3156.00000000         -70791         -69776          -4837          37999
   3160.00000000          33923         -11213         -25441         -12610
   3164.00000000         -51117         -35333         -15004         -27312
   3168.00000000          31205         -33649          56455          10384
   3172.00000000         -67751         -37456         -15484         -91399
   3176.00000000         -40420          32403           -373          36557
   3180.00000000          21196         -41429          13047         -64313
   3184.00000000          -9186          17584         -50262         -47053
   3188.00000000         -10726         -22663         -45724          53421
   3192.00000000         -31458         -14328          42769          -8557
   3196.00000000         -53265           5209        -108624         -70859
   3200.00000000            130         -14322          10296          43971
   3204.00000000         -38367         -56200          51861          -1571
   3208.00000000          -3331          -2872         -10310          16363
   3212.00000000          14121           -557         -22548          30877
   3216.00000000          -6559         -56487         -10836         -24540
   3220.00000000          33736          10854          -8234          39190
   3224.00000000           -603         -21844         -56118         -15753
   3228.00000000         -21187         -55385          30124         -74471
   3232.00000000         -26620         -31109          13754           5909
   3236.00000000         -39911           1199         -25705          -4431
   3240.00000000         -52882          -6824         -74828         -17727
   3244.00000000          51087         -34125         -57841         -41710
   3248.00000000         -56619           9946          31526          16835
   3252.00000000          21870          47976           8704          35918
   3256.00000000         -35057         -56852         -45618           1010
   3260.00000000           -734           7605          32041          37660
   3264.00000000         -61428          -9668           3199         -52431
   3268.00000000         -69320         -42655          29438          15160
   3272.00000000         -24406         -15274         -11798           7261
   3276.00000000          30119          21824         -54704          10478
   3280.00000000         -41741         -57888          40202         -12003
   3284.00000000         -28692          13040          56421         -47730
   3288.00000000           4088          13047          14075          -1473
   3292.00000000          21671         -20450          -4919          -8043
   3296.00000000        -111071         -79280         -48155          20112
   3300.00000000          12051         -12432         -42487          29643
   3304.00000000         -25370          39251         -10369          18004
   3308.00000000           4756         -10464         -19995         -10990
   3312.00000000          32685         -11000         -13185          39218
   3316.00000000         -24110         -40935         -60869         -21882
   3320.00000000         -44155          33001          15281          -4484
   3324.00000000         -12719         -26091          38836         -26659
   3328.00000000         -26925          46629         -41167           3584
   3332.00000000           4359          -8096           8426           3254
   3336.00000000         -16856           9666           2577          -8902
   3340.00000000         -48844         -17697          15850          51808
   3344.00000000           4657          14234           3668         -23232
   3348.00000000          -2166          13267          40929         -13884
   3352.00000000          -8072         -48571         -57498          -9867
   3356.00000000          31920         -18911          17287          -3277
   3360.00000000         -45270          -6853          50301          20907
   3364.00000000         -70990          11421         -13854         -25280
   3368.00000000         -25938         -15939          45988          44366
   3372.00000000          14935           2939           5540          -4405
   3376.00000000         -34228           1507         -38377         -43066
   3380.00000000         -19550          -6314         -59157         -42515
   3384.00000000         -23119            767         -21945          38471
   3388.00000000         -37777          38325          -2448           7135
   3392.00000000          10478          -6252          27315          41688
   3396.00000000         -14001          21732          22842          12348
   3400.00000000          36222         -26129          58619         -35541
   3404.00000000          17241          27758           1893          45719
   3408.00000000         -58287         -34889          32275          28235
   3412.00000000          -3463         -56071         -68719         -28914
   3416.00000000           6505         -65378           3112           8519
   3420.00000000          11173            101         -20013          -7643
   3424.00000000          10982          -4858         -38648         -54217
   3428.00000000          42308          27200           2458         -57477
   3432.00000000         -21963          59707         -18177          -3753
   3436.00000000          -2268          13374           7107           8906
   3440.00000000           -242          47256         -17786           7130
   3444.00000000         -10512         -18865         -31343           5520
   3448.00000000          28793          30350          30147         -36247
   3452.00000000          14215         -28946          13876          16951
   3456.00000000           5963         -34604         -28468          14667
   3460.00000000          12247            371          20428          -6986
   3464.00000000          21399         -72813           4800          15103
   3468.00000000          32000          21034         -15405           8334
   3472.00000000         -25702         -50779         -63439         -11958
   3476.00000000           7207          18088         -45963          25161
   3480.00000000           -804           2250          -6500         -22817
   3484.00000000           1083          -9937          -4935          11296
   3488.00000000            -52            896           5513          28311
   3492.00000000         -40511         -11016         -18378         -37195
   3496.00000000          -5514         -33936           9564         -36963
   3500.00000000         -22009         -27932         -15311          -7896
   3504.00000000         -20787            -36          28436          -1497
   3508.00000000          21913         -13580          57834         -15517
   3512.00000000         -21958          15617          -5375           9378
   3516.00000000          39426          15067          18531          -6236
   3520.00000000          -7345           5202          43250           2469
   3524.00000000         -11908          46644          28549         -17141
   3528.00000000         -24143          -8082          13668          -7404
   3532.00000000           2082           8666          13481          19467
   3536.00000000         -51737         -13916          18997          10152
   3540.00000000          53428          38821          -6674         -75944
   3544.00000000         -26229          40597          -7603         -14414
   3548.00000000          23107         -16192         -28212           9973
   3552.00000000         -33721         -23883          39280          -6058
   3556.00000000           2535         -27372           9357          23026
   3560.00000000           2501          -5821         -31324         -34378
   3564.00000000         -10712         -26547           2665         -21751
   3568.00000000          25253         -32879          11951         -22311
   3572.00000000         -49331           4685         -30391          50691
   3576.00000000         -42249           3942         -15491          28689
   3580.00000000         -12324          11774         -22963          19268
   3584.00000000           2063           2602         -11948           5053
   3588.00000000         -25379         -23703          -6258         -20307
   3592.00000000         -15816          13855         -18476         -15224
   3596.00000000          -6230         -19703          35125          13615
   3600.00000000         -11983           3488          10132          -9174
   3604.00000000         -33226         -29711         -10768          20724
   3608.00000000          36193          -1191           1303          30124
   3612.00000000          29326          32836         -36035          -6144
   3616.00000000          49965          16119          -9865           9699
   3620.00000000            256         -14942           -333         -32747
   3624.00000000          -9982          27158          -7819          35487
   3628.00000000          30651         -11138          28589           6446
   3632.00000000          -2141          18584         -24030           1671
   3636.00000000           7849         -26637          -4388          -2493
   3640.00000000          39669          -1349         -15469         -17082
   3644.00000000         -37206          37164          -2103          12310
   3648.00000000          13874          -1678          -1497          11284
   3652.00000000         -13381          -2948          -7970          -6423
   3656.00000000          17367         -10917           7823         -11039
   3660.00000000           1263          24599         -31578          18722
   3664.00000000         -15101         -27592         -11691         -15247
   3668.00000000          13065          -5842           5825          29374
   3672.00000000         -14118         -18234          15978         -17956
   3676.00000000         -18673          19697           8746          22318
   3680.00000000          -1025          24629         -24434          -6016
   3684.00000000          -4343         -18292         -14617         -14510
   3688.00000000         -35097          -4195          -3726          37461
   3692.00000000           2150           6903          -4836          -1409
   3696.00000000         -34173         -26488         -18152         -10531
   3700.00000000         -19660           3904          28845          18155
   3704.00000000           6124         -29296         -47060          -9535
   3708.00000000         -27023          25431         -33098          20099
   3712.00000000         -16646          16324          -9138         -19361
   3716.00000000          18038          11544           9951          -7019
   3720.00000000          -1623         -22981           5657           2980
   3724.00000000          -4126          11689          19761         -11297
   3728.00000000         -29710          37212         -23189          25436
   3732.00000000         -20372          23397          -2830         -12797
   3736.00000000           9013           8032           7141           4639
   3740.00000000           2645           5826         -16242         -19745
   3744.00000000            641          -2591          20473           2899
   3748.00000000          16777            373          14561          33658
   3752.00000000          17844         -17584         -25525          -6897
   3756.00000000          29184         -19927          20011          -6359
   3760.00000000           -489          -8326           6270           5324
   3764.00000000            -46          21111          -6319         -33289
   3768.00000000          14062          17370          11911         -20170
   3772.00000000          15979         -19023          19398          32999
   3776.00000000          -1499         -11562          -3628         -50568
   3780.00000000           6505          -2542          25323          17771
   3784.00000000          -3933          -9104          18687         -19519
   3788.00000000          29522           2223           7182           8836
   3792.00000000          17574         -21258           9273          14592
   3796.00000000          -8577          -7430         -26572           2326
   3800.00000000          -6350         -16591           2657          -6363
   3804.00000000          -5302           2241          15349         -16209
   3808.00000000           -204         -46551          15093         -20122
   3812.00000000           9114         -46538          19024          23090
   3816.00000000           5726          14663          14128          12074
   3820.00000000           4518           5813           -738           -855
   3824.00000000         -17463           3700          -3813          18756
   3828.00000000          14068           8513          16293          -8876
   3832.00000000          10695         -12604           2403          21618
   3836.00000000         -42230           1906         -12610          -9511
   3840.00000000           5494           2680          17895          10435
   3844.00000000          22135          17047          -4821           5341
   3848.00000000          18624           3826           1864          45161
   3852.00000000          22825           2360          30437            -43
   3856.00000000           1931            869          25637          10193
   3860.00000000           1002          13165          -8964           2672
   3864.00000000          -2126          -6459          22282          -4364
   3868.00000000            442          42945         -20920         -15632
   3872.00000000           5927          -5784         -20335          17697
   3876.00000000            311          25383           7977            241
   3880.00000000          22653           9056          27861           5835
   3884.00000000           2034           8347          15571         -19234
   3888.00000000           1631          -7745           2666           6801
   3892.00000000         -11501           1616            635           6667
   3896.00000000           6307          30329         -26279           6901
   3900.00000000          15253          15090           2329          15737
   3904.00000000         -17923          -6826           5067         -20987
   3908.00000000           6357           5211         -17385          27729
   3912.00000000          20350         -17810          21393          23505
   3916.00000000          -8857          23725          -6596          19395
   3920.00000000           8127          -1169           -397          13560
   3924.00000000         -43854          -1562          -1556           5044
   3928.00000000          19152          16447            219          -5365
   3932.00000000          10447          -5088          22595         -26553
   3936.00000000         -11595          -6839           -385         -21139
   3940.00000000          14664         -27552          -5203           1203
   3944.00000000           3611         -12496          11330          -1815
   3948.00000000           3616           8425         -23664           -417
   3952.00000000          -2870          -9462           4343          14703
   3956.00000000           7977           4627          -4210          12618
   3960.00000000           2470          15432           3300          -3208
   3964.00000000         -18245           2692         -12607         -13299
   3968.00000000           7379          -2695         -11904           9590
   3972.00000000          24388          -9722          -5623          -8098
   3976.00000000           7877          21859           9500          15181
   3980.00000000         -10085         -11120          12390          15586
   3984.00000000           8196          21657         -21042           4775
   3988.00000000         -21561          12587           3247          13085
   3992.00000000         -20887         -12244           8804           -101
   3996.00000000          -7719         -10609           7380          12522
   4000.00000000         -16466         -18960           7752           7817
   4004.00000000           5472          18126         -13667          -2892
   4008.00000000           4351          -8135           2178           5773
   4012.00000000          -2013          -1525         -12702          10669
   4016.00000000          -1649          -8656           2167         -12753
   4020.00000000           6326         -27315          10634         -12791
   4024.00000000           7620          13499          -6398         -11992
   4028.00000000          -1073           5317          46505          14350
   4032.00000000           4017           6430           6810            456
   4036.00000000         -15801          -2407         -13059           5029
   4040.00000000           7264         -11828           1574            294
   4044.00000000         -40983          15608          -9093          -3415
   4048.00000000          18694          -4806         -12623          -5671
   4052.00000000         -11306          -8213         -10285         -12437
   4056.00000000          -4804          -2853           7166         -13338
   4060.00000000           4953          -8433           1594           4918
   4064.00000000          -6512          -8190          -6743           3818
   4068.00000000           3582          -8535         -23776          18312
   4072.00000000         -15864          39306          23631            107
   4076.00000000         -16541           4591         -14399          14371
   4080.00000000           7843           1339           3210          34876
   4084.00000000         -18110           3774         -12858          -2024
   4088.00000000          19839          -8051          -1180         -15694
   4092.00000000          -6914          15705           4971          -1143
   4096.00000000          -5113          -9477          -9131          -8062
   4100.00000000          15543          -9807           4137          -3446
   4104.00000000          -2426         -15940          20179          13997
   4108.00000000           -658          15504          -1646            490
   4112.00000000            479           6577          14454            632
   4116.00000000           1002          35902           7972         -11906
   4120.00000000         -14329          12524           1644         -17489
   4124.00000000         -13279          12507          31727            316
   4128.00000000            536          13023           -556          -4226
   4132.00000000          -7193           6642           5371          -2645
   4136.00000000           3779          24370           7705            967
   4140.00000000           7347           9981          -7514          10942
   4144.00000000          -4754           6822         -15238          13930
   4148.00000000           -582           3147         -11563           6179
   4152.00000000           9412          -4242          -3836          -5928
   4156.00000000           5213           5821         -14030          34166
   4160.00000000           -898          -1304         -23137           2329
   4164.00000000          10459           8803           8250          10629
   4168.00000000          15632           7638          -4719          10696
   4172.00000000           5697           4833          10013          18044
   4176.00000000          -2431          19778         -23070           5836
   4180.00000000          20251          -5640           1048          -6057
   4184.00000000           8669          -7246          -1636          -1224
   4188.00000000          -4472           4588          10134           3384
   4192.00000000          -6733           1251          13399           1674
   4196.00000000          14991          11227          20151            449
   4200.00000000          -4942          -1137           7977           3320
   4204.00000000           4181         -14722          15913          -3870
   4208.00000000          -7626          -4950         -12143          14237
   4212.00000000          -9649           4948          -5706           4383
   4216.00000000          -3637          -7596         -11657          12538
   4220.00000000          11142           9973          12434           8209
   4224.00000000          -2329           5891           2714           8402
   4228.00000000          -2617          -6982         -13109           -528
   4232.00000000         -13570          -1284           3340           7067
   4236.00000000          -1216         -12202          19186          -3335
   4240.00000000         -13101          -1810          -1720           7021
   4244.00000000          13921           6892           3720           7136
   4248.00000000           4168           9071            797           3366
   4252.00000000          -1283          14805           8027          -1736
   4256.00000000           4300          16964          -1463          -1725
   4260.00000000          -3199           1572            362           1423
   4264.00000000          11937           9362           8715          -9740
   4268.00000000          -2590          -1269          12010          -6558
   4272.00000000           7006          13593           -157           -951
   4276.00000000           1032           -661         -12119           1681
   4280.00000000           5630           -122           6023            711
   4284.00000000           2981           7269           4635           -831
   4288.00000000          -9584          -2804         -10587          -1351
   4292.00000000         -11874           1891           6764          -2540
   4296.00000000          -3604          -9371              3          -9057
   4300.00000000          -4608           1666           6771           5436
   4304.00000000           4552          -7503          -5258           2791
   4308.00000000           1223          -2556          17153           5855
   4312.00000000            904          -3488           7533           1817
   4316.00000000          16554          13415           8735          12732
   4320.00000000           5557          -8206          -2556          14874
   4324.00000000           6621          11352           1662           3773
   4328.00000000           3766          21068          -7136          -7078
   4332.00000000           -682          -2600          -7401          -1545
   4336.00000000           -221          -5920          -5053           4351
   4340.00000000          12052          -2071          -4420          14861
   4344.00000000            862          10677           4761           3064
   4348.00000000          12677          17581          -2386          -8063
   4352.00000000          11843          -3361           1230           5671
   4356.00000000              0           -509          -2477          13378
   4360.00000000           3189          -7710          -4337          -4345
   4364.00000000             13            567           9903          11635
   4368.00000000          -6079           4624          -2185          -6259
   4372.00000000          -3655           7506          -4268         -15164
   4376.00000000          -7368           2282            312           -464
   4380.00000000           4397           7930          -4960           6220
   4384.00000000           5817          -3275           3274           5032
   4388.00000000          -4675          -1397          -7613          -1467
   4392.00000000            637           -235           3705           2623
   4396.00000000           7033           8600           7347          -4408
   4400.00000000         -18744           7400          10925          -1135
   4404.00000000           2157          -2955          -3965           2918
   4408.00000000          -3703          18122           5364          -4702
   4412.00000000          -5093          16585           5149          -3153
   4416.00000000          -5286           3253          10017           3790
   4420.00000000           3684          -1663            277          11270
   4424.00000000          -4143           3441          -5596           4009
   4428.00000000          19843          -4534           -242          -1750
   4432.00000000           -180           -594            357         -11320
   4436.00000000          -2972           7458           6820            874
   4440.00000000           3842          -8398           6664          -4520
   4444.00000000           7400           2438          13319          14055
   4448.00000000          -3258           3284           -227           5649
   4452.00000000          -3930          -4175          -5398           -209
   4456.00000000          -2222          11912           2956          -6456
   4460.00000000          12662           2250           1495           5002
   4464.00000000           4541           8994          -8461           4020
   4468.00000000          10442            962           1172          -4151
   4472.00000000           3182           1228           6978           1190
   4476.00000000           9487            -40           9930          -6411
   4480.00000000           9636           9298           9573          -1767
   4484.00000000           4119          -4918          -7242           2977
   4488.00000000           7982          -7073           3826          -2538
   4492.00000000           3238           3298          -3457          -1538
   4496.00000000            959           2537           2488           6429
   4500.00000000          15147           1879           -544          13793
   4504.00000000           6599          -3079          -1062           -809
   4508.00000000          -7448          -4974            -10          -3724
   4512.00000000          -3018          12655          -2253           -966
   4516.00000000          -1616            781           5613           4072
   4520.00000000          -1965           5955          -2105          -7456
   4524.00000000           7120           7705          -4527           1530
   4528.00000000          -1513           -273          -4978           7250
   4532.00000000           6353         -11556          -4517           2661
   4536.00000000            704          -1164            137          -1310
   4540.00000000           2093          -5836          -1088          -4782
   4544.00000000           2385          -2341           5266            172
   4548.00000000           7079           7616           -723          -2886
   4552.00000000           4836           -402           6822            -98
   4556.00000000          -5212             64          10925           -752
   4560.00000000           2122           -683          -8069          -3255
   4564.00000000           2101          -3280         -11485           7738
   4568.00000000           5629           3206           6873          13625
   4572.00000000           4741          11070          -4072             53
   4576.00000000           1560           3313           7691           5416
   4580.00000000          13924          -6757           3843            840
   4584.00000000            -65           8398            348            791
   4588.00000000           4762           1060           -418           2885
   4592.00000000          -1626           -864           2891          12656
   4596.00000000           1971          17703          -5219           3037
   4600.00000000            722          -3437           3525          -2303
   4604.00000000           -229           5733           -341          -7413
   4608.00000000          -7491           6119          -3194          -5753
   4612.00000000            875            972          13363          19638
   4616.00000000          -2263          -1785           1709           1802
   4620.00000000           1046           8197          -5613           1460
   4624.00000000           2318           4135           1357          -1007
   4628.00000000          -2664          -3134           2869          -1820
   4632.00000000          13604           1115          -7305          -1319
   4636.00000000           3103          -4627          -6378           6128
   4640.00000000           -426           5467          -4321            322
   4644.00000000           -569           5953          -3365           5961
   4648.00000000            589           1170          -3736           -996
   4652.00000000           4796          -6859           7673           9379
   4656.00000000          -7302          -4397           4767           6964
   4660.00000000           4103           2345          -1694          -5031
   4664.00000000           4399           2272           8561           1486
   4668.00000000          10459           4656           5360           1217
   4672.00000000           7479           4423          -2671           3461
   4676.00000000           9277          -3540          -4358          -4219
   4680.00000000           1759           3194          -2108           4309
   4684.00000000           3761          -4292           7839           -308
   4688.00000000             32           5445           4835            324
   4692.00000000           1990          -1007           2597            838
   4696.00000000          10665           1430           7340            927
   4700.00000000           4155          -1277           6942          -8634
   4704.00000000          16461           8048          -4313          -3073
   4708.00000000          -2824           9950           1357          12989
   4712.00000000           4751            662           1370          -2555
   4716.00000000           7055          -2385           2346           3734
   4720.00000000           2908           4043           1351            757
   4724.00000000           1708          -2561          -7009          -3233
   4728.00000000           2481          -8141           3534           3517
   4732.00000000           2815           -541           6658           -251
   4736.00000000           4226          -3893           3572          -2627
   4740.00000000           2716           6087          -6901          -1131
   4744.00000000          -3088          -1192           3918           -505
   4748.00000000           1688           2226          -2057           5323
   4752.00000000           1294           7938           2616           2981
   4756.00000000           6555          -1195           7556          -3035
   4760.00000000          -3004           7971           1688           9019
   4764.00000000           4215          -2373          -1629            200
   4768.00000000          -8076           2083          -3046           2260
   4772.00000000          -1411           2121          -5138           1120
   4776.00000000           1313           4965          -5155            134
   4780.00000000          -7402          -4424           -786          -1259
   4784.00000000           4078           3505           1279           -252
   4788.00000000          -2639           1562            720          -1889
   4792.00000000           6221          -2051          -2612            597
   4796.00000000           -295           3855           -592          -3545
   4800.00000000          -4315           5313           4083           1461
   4804.00000000           2634           -134           3124           3849
   4808.00000000           1193          -2055          -4631          -1112
   4812.00000000          -1195           9737          -6923           1018
   4816.00000000          -3546           2244           4602           -496
   4820.00000000           1629           5881           7821          -4817
   4824.00000000          -5357           2555           2397           3443
   4828.00000000          -3442           4667            -66           3200
   4832.00000000           7191           5762          -1174           -809
   4836.00000000           4876           2352          -3234           4365
   4840.00000000            869         -12402           2669            862
   4844.00000000           -974          -3377          -2181           8213
   4848.00000000          -1979           2096          -2741           1967
   4852.00000000          -3119          -6966           2819          -1362
   4856.00000000          -1112          -3215           1464           7503
   4860.00000000          -1847          -2153           -522           3900
   4864.00000000          -2271          -7813           6785           2344
   4868.00000000            742           2879           2689          -2633
   4872.00000000           -949          -1750           2009          -1149
   4876.00000000          -5256           2245            798            461
   4880.00000000           2437           5448           3473          -2324
   4884.00000000           2350           -903           3504           4619
   4888.00000000           3196           3219           -703           4967
   4892.00000000           6661           7980          -1607            972
   4896.00000000          -2204           4818           -755           6329
   4900.00000000           4331          -3667           -858           4913
   4904.00000000           -214            265           1055           1726
   4908.00000000          -3119          -3996           -443          -5383
   4912.00000000            955           3474           3399           1051
   4916.00000000          -2414           5495           6829          -1847
   4920.00000000           5385           4971          -3812           1719
   4924.00000000          -2051            551           1744           6644
   4928.00000000           5205          -4295            973            988
   4932.00000000            455           4287           1471           4176
   4936.00000000          -1506          -3474            876           4870
   4940.00000000          -3808            453           9871          -2249
   4944.00000000          -4225          -1437           -464           6757
   4948.00000000           3580            128           -364           -244
   4952.00000000           2493          -3876           2659           3140
   4956.00000000           2358          -1496           3390          10842
   4960.00000000           3754           1798           1565           5376
   4964.00000000           -196           -342           7411          -2669
   4968.00000000           1556           -749          -2131           1508
   4972.00000000            -32           2938           2669          -4103
   4976.00000000          -2373          -7028          -3839           2522
   4980.00000000           6108          -1952           1660           2100
   4984.00000000           6542            933            208           3692
   4988.00000000           7043          -6284          -1210           -539
   4992.00000000           3021           4551           2805           5449
   4996.00000000          -2231          -2283          -2221          -3765
   5000.00000000          -1112            340           3668          -1744
   5004.00000000           1408           6687           -391           1582
   5008.00000000          -1320            775           1607           2580
   5012.00000000           3653            467          -2938           3766
   5016.00000000           5908           4384           7833           -654
   5020.00000000           1055           4582           2161          -3069
   5024.00000000           2406           1368          -1953           5936
   5028.00000000           5909           3263          -1109           3457
   5032.00000000          -4003            929          -1557             28
   5036.00000000           1146           1764           3407           -679
   5040.00000000          -1076            430           1566          -1645
   5044.00000000             75           2953           -312            954
   5048.00000000            173           6512           1406           -801
   5052.00000000           3054           2783          -3253           2317
   5056.00000000            430           4064           1353          -1747
   5060.00000000            631            866           6370          -1571
   5064.00000000          -3476          -1727            138          -1920
   5068.00000000          -1532           2961          -6901             30
   5072.00000000           1413          -1243           3693           1954
   5076.00000000          -1132          -4227          -2721            748
   5080.00000000           -632           1373           2343          -3546
   5084.00000000           1521          -2299           2639           3793
   5088.00000000           4699           2015            417          -3553
   5092.00000000           4329            978            863           -365
   5096.00000000           6631            929           -407           2989
   5100.00000000            969           2652           -195           3751
   5104.00000000           4250          -1228           7200           2968
   5108.00000000            -10           3030            671            994
   5112.00000000          -3038          -3686            413           3618
   5116.00000000          -2171          -1778           3052          -6746
   5120.00000000          -1135           -600           4252           1049
   5124.00000000           3269             13           6284          -6347
   5128.00000000             78           3760          -1989           -977
   5132.00000000           4660           1512           1992          -1352
   5136.00000000          -1230            802          -1398           2492
   5140.00000000           2076            758           6481            -14
   5144.00000000            656          -1774           3540           2316
   5148.00000000           1153           2508           1432           1800
   5152.00000000            989            663           4778          -1713
   5156.00000000           2371           1194           2749           2799
   5160.00000000           1308           1612           3913           1300
   5164.00000000           2483           2216           -321           -980
   5168.00000000           -360           4754          -1379          -1730
   5172.00000000           2330           2784            801          -6677
   5176.00000000           2896            527          -2142           1603
   5180.00000000           1283          -2715          -1395            806
   5184.00000000          -1652           -487           1364            -96
   5188.00000000           4912           2713            808            -73
   5192.00000000           4340          -1945           1343          -2182
   5196.00000000            123          -3075           1896          -3723
   5200.00000000          -2455          -4219           3026           2536
   5204.00000000           1400            472            358           -484
   5208.00000000            151           1888           -673            568
   5212.00000000           1970          -2416           -417           -853
   5216.00000000           -750           4565            782            174
   5220.00000000           1370          -3345          -1036          -1383
   5224.00000000           1992           1280          -1797           -881
   5228.00000000          -2641           1200           2334           -497
   5232.00000000            732           1602            662            -51
   5236.00000000          -1425          -1763          -1953          -1100
   5240.00000000           2357           5805            327          -1079
   5244.00000000          -2541             21           4729          -1588
   5248.00000000           3043            210           2011          -1780
   5252.00000000           1839          -3245           -294          -2589
   5256.00000000             18           2421           1909           3196
   5260.00000000          -3733          -3931            401           1255
   5264.00000000           3236          -2194          -3348          -3824
   5268.00000000          -2354           1133           -341           1575
   5272.00000000          -1256           4119           2105           1331
   5276.00000000            995           -728           -931           2143
   5280.00000000            647          -1811           1982           1545
   5284.00000000          -2713           -692           2602           2135
   5288.00000000           4578           2026           -651           1554
   5292.00000000           1907           -348           2493           1888
   5296.00000000          -1067           -217          -3178          -1600
   5300.00000000            346            138            180          -2498
   5304.00000000          -1904            887            639          -2059
   5308.00000000            462           1973           3018          -1678
   5312.00000000           -800           3179           2296          -2070
   5316.00000000            515           5009          -1007           1359
   5320.00000000           -389           1523           1713           4255
   5324.00000000          -1067           2328           2752          -2337
   5328.00000000           1809          -2469           1746           2394
   5332.00000000           -340          -4254           3509           3541
   5336.00000000          -1166           2759           2361           1900
   5340.00000000            878           1249           3498           1880
   5344.00000000            436          -2565           3054           1986
   5348.00000000           -204          -1410           3259           -175
   5352.00000000           -199            -94           2545          -3463
   5356.00000000            979            720           1324          -2849
   5360.00000000            418           1501           4170           -558
   5364.00000000          -1001           3568           -514           2379
   5368.00000000           3670           -825           -617           -863
   5372.00000000            729           -481           -485           3573
   5376.00000000           4575            226             88            116
   5380.00000000           1369           2867            320           2759
   5384.00000000          -1347            912           -211           2064
   5388.00000000           -217          -2283           2717           3089
   5392.00000000           2002            282           -999            457
   5396.00000000           -409           -761          -2957           -430
   5400.00000000           3179           1696           3027           2243
   5404.00000000           1649            922           1765            857
   5408.00000000            280           -180           1974            982
   5412.00000000          -1383            289           3208           4369
   5416.00000000          -1029          -1131          -1609          -1419
   5420.00000000           -308           1312           4033           1923
   5424.00000000           -613          -2186           1573           1708
   5428.00000000           -502            -82            120           -504
   5432.00000000           -688          -2590           1029           1025
   5436.00000000           -665          -2759           1583          -3955
   5440.00000000          -1589           3748          -2164          -2154
   5444.00000000          -1398            903          -2115            467
   5448.00000000            522           1586           1595          -1833
   5452.00000000           2770           -562          -2137          -1591
   5456.00000000           -386           -269            262           1576
   5460.00000000           1528          -1142            149          -1201
   5464.00000000            -12            569           -826           -302
   5468.00000000          -2900          -1781          -2272           1984
   5472.00000000           1533           -123          -2065            125
   5476.00000000           1620            389           -258           2070
   5480.00000000          -1031          -2361            344           1428
   5484.00000000           -859           2670           3915           1004
   5488.00000000           -699           -366            201            -79
   5492.00000000           1529           -756           -674          -2818
   5496.00000000           1289          -1601           1680           1345
   5500.00000000          -1464            947          -1137            674
   5504.00000000           1732           2063          -2789           2885
   5508.00000000           3792          -2009           -813          -2080
   5512.00000000            516           2399            991             34
   5516.00000000            126          -2609          -1360           -501
   5520.00000000            -41          -1405            527          -2307
   5524.00000000           3742           1617            560            788
   5528.00000000           1594           1709          -2147          -1708
   5532.00000000            123           -163           -197           -802
   5536.00000000           -333            163            191            249
   5540.00000000           -806          -1787           1232           1746
   5544.00000000           1792           1320          -1722          -2138
   5548.00000000          -1876           -207            422            956
   5552.00000000           2558           1487           -898             78
   5556.00000000          -2174           1170           1986           2775
   5560.00000000           1804           2328          -1229            847
   5564.00000000            882          -1275            862            662
   5568.00000000            842           -414            346            568
   5572.00000000           2312          -1153           -952            245
   5576.00000000           1553           -900           1020          -1273
   5580.00000000            941            492            663          -1032
   5584.00000000          -2251          -3632           1095           2907
   5588.00000000           1200            715           -651           -261
   5592.00000000            608            -76           1412           1417
   5596.00000000           3173          -2444           1921          -3485
   5600.00000000            891            718          -1731          -1167
   5604.00000000          -1182            128           -123           -991
   5608.00000000           1214            472           1993            489
   5612.00000000           3503           1671           2735           2998
   5616.00000000            176            615          -1579          -1588
   5620.00000000            988           2084           -289           -323
   5624.00000000           1518          -1225           1129          -2855
   5628.00000000            331           1153           1144            714
   5632.00000000             35           -609            560           1851
   5636.00000000            336          -1106           -527           1641
   5640.00000000            143           2273            648           1850
   5644.00000000            263          -1325           2211           1837
   5648.00000000           -745           -154           1268           1234
   5652.00000000          -2825            348           -538            695
   5656.00000000           1215            158           1606           -364
   5660.00000000            914           1481           1472            -31
   5664.00000000           1268          -2242          -1151            741
   5668.00000000            605           1251          -1978           -167
   5672.00000000            765          -2493           -310           1152
   5676.00000000            384            106           -596          -1002
   5680.00000000           1977          -1563           -255           -935
   5684.00000000           -821           1621            704          -1695
   5688.00000000             74            509           -762           -285
   5692.00000000           1042            429          -1302          -1738
   5696.00000000           -406           -316           -743          -2644
   5700.00000000            710           1500            322           -798
   5704.00000000           1720          -1565           2171           2809
   5708.00000000           1315           -266            272            380
   5712.00000000           -502          -2563           3239           -412
   5716.00000000          -1434           -481           2492           -402
   5720.00000000            712          -1673           1915            169
   5724.00000000           -778           1168            295           1431
   5728.00000000          -1639           1423            360           -230
   5732.00000000           -137           -665          -1380           2269
   5736.00000000          -1878           1638           -756           -738
   5740.00000000           1647            214            936            432
   5744.00000000           1496          -1232           1813           1067
   5748.00000000          -1025           1017           1499          -2231
   5752.00000000           1474          -1216           -167            289
   5756.00000000           -264           -755           -196           2273
   5760.00000000            863          -1123            440            739
   5764.00000000            -96          -1312           -126             90
   5768.00000000           -148          -1411           -351           1238
   5772.00000000            -50           -993           1652           -477
   5776.00000000          -2429           1941          -1504            672
   5780.00000000           -142            394            -95          -1126
   5784.00000000           -133          -1484           -559            579
   5788.00000000            724           -169           -171           1781
   5792.00000000          -1292            695           1518          -1098
   5796.00000000          -1141           -563           -398            685
   5800.00000000           -916           -264            849          -1665
   5804.00000000           1546          -1400           1696           -320
   5808.00000000           1053           1224           1136            836
   5812.00000000           -439          -1658           -884          -1745
   5816.00000000           -459          -1337           -467           1475
   5820.00000000           1231           -923            366           -353
   5824.00000000            359          -1491          -2227           -529
   5828.00000000           -357           -267           2092           2473
   5832.00000000           -475            807          -2126           -856
   5836.00000000          -1323            505           1304            537
   5840.00000000           1293           1593          -2467            275
   5844.00000000           -649            766           -444            407
   5848.00000000            343            136            819          -1091
   5852.00000000           -144            616           1842            829
   5856.00000000          -1110           -862            982          -1245
   5860.00000000           1862           -569           -807            429
   5864.00000000           1467           2280           1437           1430
   5868.00000000            710           1605          -2526            823
   5872.00000000           1511          -1157           1077           -193
   5876.00000000           1378          -1183          -1387           -665
   5880.00000000            963            614           -242           -909
   5884.00000000            421            855           -119           -506
   5888.00000000            467           1499           -449            955
   5892.00000000           1273           -449             69           -239
   5896.00000000           -872            245           -301            -26
   5900.00000000           -311          -1983            -82           -589
   5904.00000000           -310           -180           -674           1335
   5908.00000000            170           2631            294           -303
   5912.00000000           -815           -219           -904            542
   5916.00000000          -2555           1955           -268          -1244
   5920.00000000          -1117            250            761            161
   5924.00000000           -131           1052           2596           -828
   5928.00000000           -558            664           1380            -20
   5932.00000000           -194           -836           -941           2242
   5936.00000000           1121           -998            867            331
   5940.00000000             73           -684           -160            903
   5944.00000000           1515            851           1340            788
   5948.00000000           1259           1033           -361           -937
   5952.00000000           -792            277           1260           -451
   5956.00000000            344           -387           -653          -1519
   5960.00000000           1351          -1697           -101           -115
   5964.00000000           1388           -745           -679           1071
   5968.00000000           2336            601           -897            903
   5972.00000000            116           2087            -42           -824
   5976.00000000            490            704            307           -126
   5980.00000000           1471          -1775           -509            -16
   5984.00000000          -1817           -699            361             63
   5988.00000000            327          -1705           1262            332
   5992.00000000           -117            227             99            804
   5996.00000000            701            217           -119           1578
   6000.00000000           -212           1051           -126            523
   6004.00000000            793            732            557            346
   6008.00000000              5            490            303           2392
   6012.00000000           -616           -683            161            408
   6016.00000000           -425            -41           -193            271
   6020.00000000            297            170            407            507
   6024.00000000            -54           -855           -188           -437
   6028.00000000            891           -508            -15           -472
   6032.00000000            134           -249           -815            727
   6036.00000000           -731           -217            944            298
   6040.00000000           -134            671            107            562
   6044.00000000           -223             14           -123           1026
   6048.00000000          -1807           -205            282            596
   6052.00000000            648           -582            816            905
   6056.00000000           1845            529            173             17
   6060.00000000           -387           -402            360           -352
   6064.00000000            938            600            217           -174
   6068.00000000           1780            717            724             40
   6072.00000000           -257            817           1269            128
   6076.00000000           -936           -387            514            769
   6080.00000000           -580           -426            566          -1127
   6084.00000000            -27           -285            949            -43
   6088.00000000           -413            159            233            835
   6092.00000000            881            238             79           -208
   6096.00000000           -641            658          -1134          -2130
   6100.00000000            803           -239            146          -1059
   6104.00000000           -306            807            301            290
   6108.00000000           -196           -444           1039           -681
   6112.00000000            295            189           -491           -285
   6116.00000000            809            209           -657           -453
   6120.00000000           -317            305          -1553           -467
   6124.00000000           1355           -869           -503            -35
   6128.00000000           -153            215           1462          -1136
   6132.00000000          -1350            871          -1722           -375
   6136.00000000            166           -100           -664           -749
   6140.00000000           -583           -281           -514          -1153
   6144.00000000            -46           1282            681            412
   6148.00000000           -363            454           -792           1033
   6152.00000000            929           2154           1420           -784
   6156.00000000           -511            103            253           1115
   6160.00000000            856            763           -308           -360
   6164.00000000           -866            923           -420           1088
   6168.00000000            -20            297            324            663
   6172.00000000           -746            472            929            646
   6176.00000000           -538           -699          -1399           -374
   6180.00000000             16           -116           -125            399
   6184.00000000           -267            273            848            750
   6188.00000000            768            642            318           -258
   6192.00000000            817            751           -376             -1
   6196.00000000           1127            821           -530            -41
   6200.00000000            771            -79            297           1062
   6204.00000000            503            515            920             20
   6208.00000000           -112            687            713           -590
   6212.00000000            292           -226           1200            419
   6216.00000000           -620           -289            133           -722
   6220.00000000            107            444            -28           1982
   6224.00000000           -130            -80           -366            191
   6228.00000000           -952           -990            610           -543
   6232.00000000           -406           -288           -675            912
   6236.00000000            687          -1185           -213           -931
   6240.00000000            214            234           -647             36
   6244.00000000            369           -510           1057           1576
   6248.00000000           -658            435           -204            -45
   6252.00000000            198            321            535            667
   6256.00000000           -111            619            413           -477
   6260.00000000            323           -462          -1061            620
   6264.00000000          -1878            190            833            846
   6268.00000000            265            221            579          -1224
   6272.00000000           -190           1115            942           -336
   6276.00000000           -323           -476            760             20
   6280.00000000             43           -465           -175           -314
   6284.00000000            340          -1056            792           -689
   6288.00000000          -1036            445            532           -235
   6292.00000000           -670            165           -322           1001
   6296.00000000           -276           -338           1260            -16
   6300.00000000           1128            516           -486          -1659
   6304.00000000             47             88           -325           -569
   6308.00000000            121           -190           -132           -232
   6312.00000000            413           -703            264           -156
   6316.00000000            505            799            159            344
   6320.00000000            -58             71           -100           -448
   6324.00000000            -49           -651           -837             26
   6328.00000000              8            407           -699           -488
   6332.00000000             21          -1195            -81           1075
   6336.00000000            278           -164          -1069           -661
   6340.00000000           -463           -499            311            245
   6344.00000000            418              5            794            169
   6348.00000000            703            452            234           -890
   6352.00000000            712            371            243            598
   6356.00000000            707           1055            129             -6
   6360.00000000            543            172           -186           1191
   6364.00000000           -198           -103            147            -35
   6368.00000000             72           -100            362           -635
   6372.00000000           -121             26           -110            392
   6376.00000000            268            527            409            236
   6380.00000000           1022            117            156            717
   6384.00000000           1274            -55            746           1011
   6388.00000000           -436             61           -360            358
   6392.00000000            596           -218            504            854
   6396.00000000            805           -112           -343            307
   6400.00000000            -97           1265           -666            -99
   6404.00000000            748            -21            493            712
   6408.00000000            876            382           -244            690
   6412.00000000             44            276           -474           -291
   6416.00000000           -967            901            809           -334
   6420.00000000            413            535            204            904
   6424.00000000            882           -255            123            114
   6428.00000000            264             98             98           -300
   6432.00000000             78            243             77            374
   6436.00000000            139            474           -315            483
   6440.00000000            613            965            275            129
   6444.00000000            147            180           1202            653
   6448.00000000            442           -168           -166            241
   6452.00000000           -560            -45            -84           -786
   6456.00000000             18            217            223           -150
   6460.00000000            204           -538            380             18
   6464.00000000            284             14            373             47
   6468.00000000            -66           -652           -167             20
   6472.00000000           1011            646            812            330
   6476.00000000            691            181            253           -242
   6480.00000000            189            127            371            427
   6484.00000000           -391            -25           -739            320
   6488.00000000           -269           -992            358            359
   6492.00000000           -366            632           -298            263
   6496.00000000           -656           1374           -903            339
   6500.00000000           -672             24            447            527
   6504.00000000            -68            465             51            234
   6508.00000000             66            300           -178            -48
   6512.00000000            145            114            544            493
   6516.00000000           1228           -571            -36            438
   6520.00000000           -523            539            344            107
   6524.00000000            147            529            -16            276
   6528.00000000           -135            589            171            251
   6532.00000000           -111            -27            -12            185
   6536.00000000           1031             -9            390            -78
   6540.00000000             43           -608           -168            382
   6544.00000000           -602           -225           -375            337
   6548.00000000            283           -686            218           -102
   6552.00000000           -406            -36            553           -516
   6556.00000000            525            501            -75            -32
   6560.00000000            805           -351            168            533
   6564.00000000           -312           -535            194           -606
   6568.00000000            518            729           -506           -399
   6572.00000000          -1086            331            287           -197
   6576.00000000           -413           -155             92           -542
   6580.00000000            402             69           -132            803
   6584.00000000            361           -655              1           -178
   6588.00000000            256            537           -601             -6
   6592.00000000             68           -724            342            267
   6596.00000000             37           -193           -535             73
   6600.00000000            830             14           -315            373
   6604.00000000            614            365            332            -95
   6608.00000000            308            831           -492             28
   6612.00000000            -49            358             86           -405
   6616.00000000            340            306            196            185
   6620.00000000            766            101            652            169
   6624.00000000            306           -294            106           -179
   6628.00000000           -196           -279            451           -339
   6632.00000000            675            195           -749            -29
   6636.00000000            483            163            165           -317
   6640.00000000           -290           -450             43           1087
   6644.00000000           -479             63           -593            173
   6648.00000000           -135            397            115           -373
   6652.00000000            736           -658            207            102
   6656.00000000            172           -113            313            207
   6660.00000000            169           -162            268             31
   6664.00000000           -274            -29           -457           -100
   6668.00000000            183            277             21           -358
   6672.00000000           -149           -280             -1            707
   6676.00000000           -576            153           -174           -215
   6680.00000000            213            128            402            -85
   6684.00000000            117            276           -344            203
   6688.00000000            -46           -133           -817            194
   6692.00000000            276            582           -506            520
   6696.00000000           -444           -190           -128           -286
   6700.00000000           -378           -189           -278            296
   6704.00000000            726            693             36             94
   6708.00000000            929            -64           -605            248
   6712.00000000            163            384           -218            -22
   6716.00000000           -248            494           -627            395
   6720.00000000            159             46            670           -350
   6724.00000000              9             47             24            397
   6728.00000000            371            279            815           -517
   6732.00000000           -414            142           -284           -511
   6736.00000000           -446            231            828             78
   6740.00000000           -589            320           -199            175
   6744.00000000            -44            280           -213            202
   6748.00000000           -289            -88            443            421
   6752.00000000             47           -388             97           -574
   6756.00000000           -260            389           -119            163
   6760.00000000           -455            403            456            328
   6764.00000000           -306            127            290            162
   6768.00000000            151           -102            -50            601
   6772.00000000            199            273            854            170
   6776.00000000            155           -615            228           -469
   6780.00000000            963            572           -160           -185
   6784.00000000             90           -160            411            466
   6788.00000000           -328             11            139           -118
   6792.00000000            719            536            338            416
   6796.00000000           -473            256            -30            436
   6800.00000000             96            322            136             41
   6804.00000000             96           -211            469            529
   6808.00000000            395             99            286             86
   6812.00000000            -87             -6            434            111
   6816.00000000            385           -149            254            -26
   6820.00000000            611            374           -314            446
   6824.00000000           -298            -17            -50            291
   6828.00000000             -6           -379           -145            647
   6832.00000000           -107           -451           -398            144
   6836.00000000            141           -637             90            298
   6840.00000000            120            172            299            121
   6844.00000000           -306           -331            -53            -94
   6848.00000000            160           -223            213            126
   6852.00000000            108            -65             51            -49
   6856.00000000            238           -217            360            112
   6860.00000000            -83            246           -212            165
   6864.00000000            154           -476           -431           -104
   6868.00000000           -312            251            499            280
   6872.00000000             -4            -11           -101            340
   6876.00000000             38            315            -34           -196
   6880.00000000            105            380           -272            -42
   6884.00000000            435           -203            243           -205
   6888.00000000            211            330            191            365
   6892.00000000           -255           -147             -7            343
   6896.00000000            101            375           -297            289
   6900.00000000           -194            148           -183            289
   6904.00000000             84             14            -72            205
   6908.00000000            294            -32            -92           -331
   6912.00000000            330           -250             -1           -669
   6916.00000000           -363            -61            204            -58
   6920.00000000           -306            -57           -243            101
   6924.00000000            -64             62           -398            401
   6928.00000000             26            240            -85            448
   6932.00000000            -12            253            189            498
   6936.00000000            100            -17           -125            -34
   6940.00000000            133           -268             48           -297
   6944.00000000             51           -156            445             -4
   6948.00000000           -214            -75             35            310
   6952.00000000             52            -88           -290            359
   6956.00000000            238             46           -462            273
   6960.00000000            147            606           -195           -284
   6964.00000000            289            114           -218             83
   6968.00000000            480            125           -106            278
   6972.00000000           -124           -103           -186             90
   6976.00000000           -115           -231           -182            434
   6980.00000000            -99            522           -209            134
   6984.00000000             86           -244            163            247
   6988.00000000           -152            246            -88            389
   6992.00000000            302           -192           -157           -159
   6996.00000000           -122             81           -186           -285
   7000.00000000            245            -21            543            198
   7004.00000000             21            659            -28            182
   7008.00000000           -390            -77            170            219
   7012.00000000             10           -409           -166             33
   7016.00000000            -76            -36            196             24
   7020.00000000             94           -122            142            162
   7024.00000000             92            297            -82             27
   7028.00000000             47            105            461            -64
   7032.00000000            349           -142           -470            -49
   7036.00000000           -100            -39           -148            238
   7040.00000000            304           -344           -119            154
   7044.00000000           -155           -311             48            247
   7048.00000000            -13            118            202            -15
   7052.00000000            279            122            183           -247
   7056.00000000           -134           -199           -188           -342
   7060.00000000            346             93           -696            -36
   7064.00000000            115           -318            143            593
   7068.00000000            -73             63            354           -275
   7072.00000000           -177            180           -311            240
   7076.00000000           -443             -4             14            426
   7080.00000000            160            -51           -627            307
   7084.00000000             -2            162           -292           -230
   7088.00000000             91            269            448            -53
   7092.00000000            227            149            -39             43
   7096.00000000           -183           -136           -200           -355
   7100.00000000           -195           -231           -145            269
   7104.00000000            210            172             -1            158
   7108.00000000            152            118             31            181
   7112.00000000             54           -187            300             95
   7116.00000000            245           -216             -3           -136
   7120.00000000             54            -64           -240             65
   7124.00000000            246             58            -85             32
   7128.00000000            -19           -270            189           -184
   7132.00000000            288             74             59            233
   7136.00000000            324            132           -174           -583
   7140.00000000           -258             28           -145            183
   7144.00000000            337            142            109             39
   7148.00000000            -30            309            -38             32
   7152.00000000            122            -93           -342             51
   7156.00000000            549            194           -254           -175
   7160.00000000             42             14             65            292
   7164.00000000             18            -12           -110             55
   7168.00000000            -57             65            -76            -98
   7172.00000000             43            -94            -19            126
   7176.00000000           -327           -111             93            223
   7180.00000000             60            140            107           -186
   7184.00000000              8             28            -95             32
   7188.00000000           -229             92            -96            125
   7192.00000000            146            -13            105            -56
   7196.00000000           -122             11            328            229
   7200.00000000           -133            107           -161            260
   7204.00000000            264           -163             30             14
   7208.00000000           -115            236            559            -13
   7212.00000000            121            -80             32           -429
   7216.00000000            200            215            405            -84
   7220.00000000             90            162            -55            -83
   7224.00000000            -69            214            111           -142
   7228.00000000            337            249             -3            231
   7232.00000000            241             59           -125            435
   7236.00000000            148           -210           -132           -192
   7240.00000000            -76              9           -102            -87
   7244.00000000            339           -217             91           -304
   7248.00000000             97           -382           -281            134
   7252.00000000           -106             45             26           -252
   7256.00000000            -79             88             21            173
   7260.00000000            308            142            144            381
   7264.00000000            -63           -114            205            311
   7268.00000000            135            -98           -322            104
   7272.00000000           -290            -98            262            149
   7276.00000000           -109            196            -25            184
   7280.00000000            -95           -135           -168            -51
   7284.00000000            -78             95            210           -215
   7288.00000000             11           -154             22            221
   7292.00000000           -232             73            -80            149
   7296.00000000           -115           -175           -239             71
   7300.00000000            -47           -245             57             53
   7304.00000000             71             10           -108           -175
   7308.00000000           -260             81            195           -121
   7312.00000000            -28           -164           -161            -81
   7316.00000000            212             89           -122            112
   7320.00000000             76            -59             28            -34
   7324.00000000           -115            262            -91             46
   7328.00000000           -267             88           -155            129
   7332.00000000             16             -7             16            150
   7336.00000000            157            -13              0            110
   7340.00000000             13            -95           -293            317
   7344.00000000            -18            103            -13           -117
   7348.00000000           -128           -331            230            140
   7352.00000000           -192            181            -11           -134
   7356.00000000           -277           -238             -3             12
   7360.00000000             34           -100             25            221
   7364.00000000            -96            -92            -78             86
   7368.00000000            -41            -34            -38            111
   7372.00000000           -128           -155             50           -366
   7376.00000000             70            -80             87             23
   7380.00000000             25             47            -96            -22
   7384.00000000            -32            -54             52            -82
   7388.00000000            -54            191             57            -49
   7392.00000000            -88            -55           -153           -111
   7396.00000000             57            137              3            123
   7400.00000000           -336           -208            -48             98
   7404.00000000            301            124            110           -299
   7408.00000000            187           -163           -154            124
   7412.00000000            -76            -34           -225             51
   7416.00000000            159            -62           -354             30
   7420.00000000           -199            -45             42           -194
   7424.00000000             46           -109            -82             15
   7428.00000000            104            198           -363             16
   7432.00000000            136             23             59            104
   7436.00000000            312            193           -258            257
   7440.00000000             18            109           -209            114
   7444.00000000            -66            -78            -80            220
   7448.00000000            204            145             33            162
   7452.00000000             38            -96            -88            200
   7456.00000000             -6           -179             30            239
   7460.00000000            205            -41            -34           -104
   7464.00000000             27            103             56            -48
   7468.00000000             47            140            -47            147
   7472.00000000            152           -277            -56            112
   7476.00000000             36             40           -138             74
   7480.00000000             22            -38           -258             17
   7484.00000000            140             83           -101             72
   7488.00000000             38            -43            -55             98
   7492.00000000             57             66            -84            -34
   7496.00000000           -110             58            112           -170
   7500.00000000            -12             85            161             88
   7504.00000000            101            159             82             28
   7508.00000000            -61           -143           -131             65
   7512.00000000             46             90             98            -30
   7516.00000000           -219            177             99            -57
   7520.00000000              4             -2           -139            174
   7524.00000000           -121            238            -57            -88
   7528.00000000             15           -201           -131            -13
   7532.00000000             73            -20           -142           -124
   7536.00000000            -58            -16            172            121
   7540.00000000             55             -6            195             22
   7544.00000000           -176             24            207            182
   7548.00000000           -105            -21             35            -64
   7552.00000000            -31             67            146              4
   7556.00000000            103            136             39           -101
   7560.00000000             86            -38             42            -92
   7564.00000000             31             -3             76            102
   7568.00000000            -70            -64            -82           -334
   7572.00000000            247             74            -72           -146
   7576.00000000           -263             82             48             58
   7580.00000000           -115            185            -18            -75
   7584.00000000           -151            -35             49            173
   7588.00000000             48            -48            180           -109
   7592.00000000             -7            -56             26            -11
   7596.00000000            109            217            -12            -68
   7600.00000000             13            -40             24            113
   7604.00000000            -34            -98             -3            107
   7608.00000000            182            -21             26           -107
   7612.00000000            142            173           -190            -48
   7616.00000000            -86            -53             67             24
   7620.00000000            -15            235             24             48
   7624.00000000            131            103            -78           -141
   7628.00000000            -13              3            -21             54
   7632.00000000             -6            189            -29            114
   7636.00000000            -22             97            101            -80
   7640.00000000             73            208            208           -184
   7644.00000000            165             17            104             74
   7648.00000000             64            -36            -25             38
   7652.00000000             67            115           -110            168
   7656.00000000            -67             66            273           -157
   7660.00000000            -84            -43            100             26
   7664.00000000            101            137            -86           -100
   7668.00000000             77            108            177             61
   7672.00000000            108             18              1            -22
   7676.00000000            -26            115           -115             81
   7680.00000000            -46            103            -83            -35
   7684.00000000            -50            166             -5            -31
   7688.00000000            118            -76            -49              8
   7692.00000000            249             -2           -108            -84
   7696.00000000           -101             -1             38            116
   7700.00000000            -48            -32              3             67
   7704.00000000             91             29             71            -99
   7708.00000000             -1           -109            -63            -57
   7712.00000000             24             47            173             89
   7716.00000000             41            -45             26            -28
   7720.00000000             99             63           -112           -139
   7724.00000000            -41            -25            -38            -93
   7728.00000000           -145            -84            152             96
   7732.00000000            149             81             44           -132
   7736.00000000            104           -151            204             61
   7740.00000000             13             99            171              2
   7744.00000000             78            125            106             21
   7748.00000000            -33            -57             15             24
   7752.00000000           -153             96             36             23
   7756.00000000            162             -4              3             -3
   7760.00000000           -163             70             38              2
   7764.00000000             89             13            229            107
   7768.00000000             97            -35             18            226
   7772.00000000            -71             10            -70           -124
   7776.00000000            -53            -21             51             62
   7780.00000000           -216             25             78            -91
   7784.00000000             34             18             25             82
   7788.00000000             48            -26             46             37
   7792.00000000              8            -67           -117             18
   7796.00000000            127           -144            -43            -22
   7800.00000000            -52             26            125             46
   7804.00000000             10            -44            -15            -29
   7808.00000000              3              5           -131            139
   7812.00000000            -23             27             44            103
   7816.00000000            148           -127             39            -36
   7820.00000000             78           -105             38             29
   7824.00000000             22             -1             30           -123
   7828.00000000           -151            -30             99            -67
   7832.00000000            -35            -10           -139           -100
   7836.00000000           -109             87             58             79
   7840.00000000            -39             66            -98            160
   7844.00000000           -124            133            151            -63
   7848.00000000            124             48           -119            -60
   7852.00000000             68             -9             13             75
   7856.00000000             60            185            141            105
   7860.00000000             -3            -15            -53            -93
   7864.00000000            -30             87             16           -137
   7868.00000000            -76             48             65             60
   7872.00000000            -16           -142             26             -8
   7876.00000000             -0             15            -87             39
   7880.00000000            -79            -86             79            -29
   7884.00000000            -78            -61            133            -17
   7888.00000000           -122            150             41             79
   7892.00000000             61              3            -25            122
   7896.00000000            -58             77            -47            -74
   7900.00000000           -181            203            -29            -61
   7904.00000000             62             92             54            -18
   7908.00000000            -47              2              6            -32
   7912.00000000             58            -13              6            -12
   7916.00000000            -86              2            -54             42
   7920.00000000            -77            -28            -80            138
   7924.00000000            -92            -21            -49            -42
   7928.00000000             -4             59             51             42
   7932.00000000             43            124             29             48
   7936.00000000             99            -35            -75            -43
   7940.00000000            108             -7             57             80
   7944.00000000            138           -120             12             52
   7948.00000000            -74             55            -65            118
   7952.00000000            109            144            -14            -79
   7956.00000000            -33             45            -64             18
   7960.00000000             70             85            -67             -8
   7964.00000000             88           -133             23             17
   7968.00000000            -36             -0            -57            -48
   7972.00000000             -8             25             15            -18
   7976.00000000            -96            -56            -34              9
   7980.00000000           -104            -50            -75            -48
   7984.00000000           -151            -13             53             -3
   7988.00000000            -15           -114             95             -2
   7992.00000000             52            -11            -52           -122
   7996.00000000             66            -49            -77            -52
   8000.00000000             66             63            -74            -41
   8004.00000000             51            -81            -30           -123
   8008.00000000           -126             29           -141            -68
   8012.00000000             72            -47             57             27
   8016.00000000            -35            -36             56              0
   8020.00000000            -42            -75              6             -9
   8024.00000000             27            -47            -50             72
   8028.00000000            -58             84             37              4
   8032.00000000             39             44            -74              7
   8036.00000000             62            -78             -3             19
   8040.00000000             50            -11             11            -40
   8044.00000000            -59             68             42             -8
   8048.00000000            -59            112             23            -37
   8052.00000000            -31             64            -46             55
   8056.00000000            -20              2             65            -27
   8060.00000000           -144            -33            111             49
   8064.00000000              9              6            -24             43
   8068.00000000            -64             87             28              3
   8072.00000000            -93             63              5            -28
   8076.00000000             25           -140             -0             21
   8080.00000000            -94            -22             21             81
   8084.00000000             61             40            -32            -95
   8088.00000000            -47             -3             34              3
   8092.00000000             -3            -53            -77              0
   8096.00000000              8             13            -13             21
   8100.00000000            -54             66              3            -84
   8104.00000000             -1             60             72             -4
   8108.00000000            -57             36             17              4
   8112.00000000            -55             33             11            108
   8116.00000000           -141            -23             34             15
   8120.00000000             30            -15            -19              4
   8124.00000000            -83            119            -99             33
   8128.00000000            -47            -41            -82             58
   8132.00000000            -24            -82            -12            -49
   8136.00000000             17             84            -73             17
   8140.00000000            -29            -31             21            -33
   8144.00000000             30            -66            -10             14
   8148.00000000            -46           -151             17             19
   8152.00000000           -126             78             28            -34
   8156.00000000            -78             28            -49              8
   8160.00000000             57             -6            -19             13
   8164.00000000            -45             73             -0            -22
   8168.00000000             40             -6            -18             74
   8172.00000000             13            -61             54            -23
   8176.00000000             19             -3             -4            -49
   8180.00000000             42             21            -60             -2
   8184.00000000            -67             -8             21            -99
   8188.00000000             47            -18            -16             61
##PAGE=N=2
##DATA TABLE= (X++(I..I)), XYDATA
      0.00000000      662174223      632136333      577850604      638326071
      4.00000000      608311971      221199967     -466269666    -1136535582
      8.00000000    -1388422973    -1002139278      -64095192     1019218101
     12.00000000     1712965155     1601505236      690852861     -549310843
     16.00000000    -1414604345    -1489561775     -863532905      -19725891
     20.00000000      561693277      698826401      541026033      342107937
     24.00000000      260564118      252922263      141652997     -218960866
     28.00000000     -746728799    -1122339863     -972324205     -200427530
     32.00000000      851768071     1570603526     1495496523      631195389
     36.00000000     -528256338    -1344208387    -1417661088     -806090123
     40.00000000       77544874      729605042      871678084      571444296
     44.00000000      151517528      -85525170      -75898447      -17650113
     48.00000000     -127224122     -433129260     -709660646     -655049820
     52.00000000     -159205041      566430062     1106753763     1100453088
     56.00000000      501815238     -379388319    -1051110907    -1143328951
     60.00000000     -639702168      125366395      696772522      789073807
     64.00000000      471042293       44554076     -185794850     -150403465
     68.00000000      -14049906      -11613553     -218909197     -486440569
     72.00000000     -539536184     -221405812      359331825      860620141
     76.00000000      935818730      473702949     -283792147     -902449677
     80.00000000    -1015142154     -577929675      120161277      656907540
     84.00000000      753123182      445325356       15100745     -243402139
     88.00000000     -224932970      -60333173       27694993      -83738222
     92.00000000     -306639554     -414456849     -224092223      219777528
     96.00000000      660994119      779258468      442340456     -195729821
    100.00000000     -761175865     -910857032     -560210430       61835008
    104.00000000      577673042      706704447      444016703       23594242
    108.00000000     -260762939     -278061470     -106998400       34655675
    112.00000000        -101116     -181659997     -312541663     -214189985
    116.00000000      136400873      531906934      685067012      431998322
    120.00000000     -123591343     -657129698     -829236947     -542098292
    124.00000000       22463616      516972339      669032570      445674980
    128.00000000       41854250     -268801606     -328219487     -173034260
    132.00000000       13464908       52737920      -74080947     -221314986
    136.00000000     -191226362       73655455      421592838      586110892
    140.00000000      398164983      -71337008     -542447603     -724763100
    144.00000000     -499845964      -11049117      452920048      627368928
    148.00000000      447428147       58059786     -277282099     -364677868
    152.00000000     -214225181        3518124       89552702       -4575854
    156.00000000     -152235021     -166351649       25410971      310026476
    160.00000000      470756632      351962516      -14721535     -425397921
    164.00000000     -623142141     -470078648      -41561537      402275247
    168.00000000      597198417      439565185       61664817     -273752342
    172.00000000     -374135543     -230727219       -8782929      109441808
    176.00000000       59053475      -76553463     -135899726      -30251110
    180.00000000      192057884      356674747      311066768       28134837
    184.00000000     -331081701     -531559722     -425119589      -58411806
    188.00000000      343802521      531739049      409511539       80386553
    192.00000000     -238532167     -356333045     -246306552      -25735983
    196.00000000      130158485      120596411       -8732062     -113446735
    200.00000000      -73459818      100377498      269843549      269236648
    204.00000000       56332473     -254864820     -449564146     -384638887
    208.00000000      -82880270      276598693      472874548      393168720
    212.00000000      100617874     -211920647     -353633075     -264061335
    216.00000000      -38649653      141303315      164474416       46433531
    220.00000000      -76636234      -83447023       44539818      192799011
    224.00000000      220952509       67317222     -186388614     -375191059
    228.00000000     -347247813     -100275736      223139964      423716649
    232.00000000      378009591      110837046     -198216064     -357508013
    236.00000000     -291218038      -71625151      136648924      199072459
    240.00000000      111914401      -23620076      -81532941      -12533071
    244.00000000      115668147      172744279       78357541     -121293955
    248.00000000     -294786517     -303628316     -108909836      180113465
    252.00000000      377707097      356295125      123070807     -171151477
    256.00000000     -347487026     -310516725     -106715584      115176742
    260.00000000      215446568      156150545       18048395      -71129955
    264.00000000      -49318195       48993884      117238555       71950489
    268.00000000      -75675194     -224229885     -245935432      -99206545
    272.00000000      139900095      326181537      322750007      129029293
    276.00000000     -144419819     -323324068     -310107942     -120536627
    280.00000000      102596662      223932270      182778370       42906701
    284.00000000      -76655730      -90734429      -10638843       74715726
    288.00000000       77554271      -24877083     -155429656     -200181483
    292.00000000     -101344591       98985111      269608661      291201459
    296.00000000      132250751     -112505306     -288003057     -289093890
    300.00000000     -123189293       92354298      224610006      204486618
    304.00000000       67200423      -74682791     -125280395      -66182430
    308.00000000       29403626       71605363       16426082      -86429210
    312.00000000     -143564282      -89384004       59485285      203583301
    316.00000000      232488680      110517467      -88532059     -238879844
    320.00000000     -244139608     -100879761       90970544      208237553
    324.00000000      186654642       53797244      -78082878     -123621394
    328.00000000      -69027930       19540808       64196790       30210549
    332.00000000      -44915440      -92739381      -66641644       19402178
    336.00000000      109725450      134579317       70352176      -47140851
    340.00000000     -146513903     -158691110      -72939553       54911475
    344.00000000      153894191      157370228       65957944      -51367272
    348.00000000     -120423897     -103496804      -24678466       46221364
    352.00000000       66611406       30442006      -28902107      -53900445
    356.00000000      -21853769       44363862       84475421       63471951
    360.00000000      -18417500     -102280470     -127573450      -69353728
    364.00000000       39211332      124602800      135786236       65340303
    368.00000000      -39863782     -111197240     -105738410      -38243834
    372.00000000       43210694       81286304       56107372       -6486043
    376.00000000      -49524217      -38717625       14096609       61861617
    380.00000000       57904707        -340516      -72948665     -106155377
    384.00000000      -69643719       19042874      101410656      123778268
    388.00000000       68811310      -25905064     -103568832     -113258969
    392.00000000      -53376284       32074850       85996746       76378049
    396.00000000       18472079      -39391053      -50450330      -16308526
    400.00000000       31881329       50077263       20475901      -38795431
    404.00000000      -76998694      -64177783       -1791321       73914291
    408.00000000      106408524       67575460      -14344344      -92353909
    412.00000000     -111387940      -63453245       21143353       80581005
    416.00000000       83935382       35998130      -23289476      -52139924
    420.00000000      -39419842        5770648       37939304       29907575
    424.00000000       -9945311      -48291862      -49572818       -8428291
    428.00000000       52066367       82569353       60331854       -6771939
    432.00000000      -75118853      -98899880      -62713513       10694803
    436.00000000       73266363       85142207       44241023      -16565576
    440.00000000      -60437560      -55873915      -14891725       27210017
    444.00000000       37031572       14608260      -20954322      -37198038
    448.00000000      -15304723       27051673       59845658       52328028
    452.00000000        6874033      -50154295      -80124208      -57546610
    456.00000000         539696       61640584       80407446       48852256
    460.00000000      -13130491      -58553409      -65328149      -30227584
    464.00000000       18367967       44205360       33618171        -508985
    468.00000000      -27432980      -26697141        2625192       35253886
    472.00000000       41555545       14345117      -30667447      -56712424
    476.00000000      -48482304       -3695103       47948430       71403966
    480.00000000       47791814       -3678973      -54219057      -65387376
    484.00000000      -37014628       10686171       43157449       43906796
    488.00000000       14315188      -19453284      -32009626      -16494127
    492.00000000       13337380       30968701       20818703      -11064650
    496.00000000      -36856655      -39649878       -8191465       32107587
    500.00000000       56958480       41959744         887121      -42953518
    504.00000000      -56411447      -37226134        7691132       42208614
    508.00000000       47925228       23359188      -12660902      -36522651
    512.00000000      -27795266       -3065510       23294546       24632241
    516.00000000        2317344      -24054916      -31634262      -13304218
    520.00000000       21806338       43875916       37836333        7074390
    524.00000000      -32487528      -51673931      -36727978       -1052696
    528.00000000       37413426       52578375       30658433       -7500561
    532.00000000      -35764763      -38084013      -13652272       13520518
    536.00000000       25907136       14775199       -8753197      -22900536
    540.00000000      -18971352        4878684       27065047       30922431
    544.00000000       11828158      -21805720      -42968958      -36322014
    548.00000000       -3815522       29722155       48153237       34122107
    552.00000000        1420768      -29470752      -37083801      -22414722
    556.00000000        7636359       23260247       23697798        4649453
    560.00000000      -15626782      -19121202       -4554947       14715187
    564.00000000       23751088       13235787      -12477584      -32899084
    568.00000000      -32266501       -7392616       23448020       41172616
    572.00000000       33112369        5887906      -24990229      -37076138
    576.00000000      -25610167        1822729       24846756       29923428
    580.00000000       13392598       -8469423      -19464546      -13945604
    584.00000000        2883218       15763578       12019096       -3230487
    588.00000000      -20611657      -25577140      -11503018       15260765
    592.00000000       30624179       30670525        7520629      -21645740
    596.00000000      -35011078      -27919533        -856077       23071654
    600.00000000       29343026       19406227       -3220610      -17529492
    604.00000000      -16257610       -4759281        9772911       14048673
    608.00000000        2997640      -14399679      -21536411      -11392274
    612.00000000        7639686       24265836       26192078        9369482
    616.00000000      -17143487      -31509201      -29465409       -8475391
    620.00000000       15546876       28890462       24246094        5197607
    624.00000000      -14654265      -21811586      -11489069        4094402
    628.00000000       14228402       11020116       -2323616      -13347435
    632.00000000      -11105119         304489       15822764       21877214
    636.00000000       13143704       -9922275      -24095206      -25768492
    640.00000000      -11216130        9484360       24605921       23635373
    644.00000000        8406214      -10549593      -19266601      -14013261
    648.00000000       -1290705        9665242        9771852        3247528
    652.00000000       -6573818       -7894295       -1177878       10458383
    656.00000000       16933451       11752938       -5256634      -20765293
    660.00000000      -22597127       -9668675        8751497       23426776
    664.00000000       22083996        7974063       -9999436      -21144750
    668.00000000      -19055363       -4824701        8256074       14763403
    672.00000000        9775554       -2055909       -7444352       -6281097
    676.00000000        4918633       11049733        9628899       -1157287
    680.00000000      -12712490      -17010598       -8275119        5688757
    684.00000000       18883030       19917546        8993631       -5935183
    688.00000000      -17966301      -17779071       -7202996        4897414
    692.00000000       13037765        9167785         804601       -5583359
    696.00000000       -6697791         630065        8799224        8380216
    700.00000000         145450       -9785085      -14204461       -8850519
    704.00000000        3718847       15199896       18660036       10266844
    708.00000000       -4411024      -15608767      -16703989      -10223701
    712.00000000        4627205       12226974       11099996        4692695
    716.00000000       -4648185       -6509403       -3243438        2353153
    720.00000000        6080904        1194448       -6445260      -11253014
    724.00000000       -8155510        -540821       10115420       15289938
    728.00000000       10227558       -2183091      -13362842      -16694850
    732.00000000      -10513742        -527078        9988520       12921760
    736.00000000        6725381       -1948965       -7608741       -4153958
    740.00000000         462826        3244730          68249       -3719398
    744.00000000       -8542358       -7020785        1091149        9276211
    748.00000000       14153492        8231202       -2470578      -13351489
    752.00000000      -16148107       -9888432        -279424       10071853
    756.00000000       12118026        8703113        -570031       -6583408
    760.00000000       -6116266       -3243835        3511868        3768541
    764.00000000        -923516       -4421619       -5860669        -167668
    768.00000000        6270831        9715072        8326792        1675899
    772.00000000       -9120507      -14805212      -11730975        -666824
    776.00000000        9069154       12780435        9109460        1664885
    780.00000000       -6985975       -6990338       -5361942         296700
    784.00000000        3260633        2577011       -1565859       -2091416
    788.00000000         289702        4854208        6791343        8111513
    792.00000000         160490       -7579057      -13308587       -8341230
    796.00000000        -822814        8278993       12891685        9726562
    800.00000000        2992002       -6274968       -8470202       -6879673
    804.00000000       -1867497        3421483        4746457         635544
    808.00000000       -2373304       -1921419        3189770        5711332
    812.00000000        6505781        1650690       -5102979      -10596040
    816.00000000       -8558038       -2302617        7088620       10972966
    820.00000000        8962096        2070419       -4637203      -10304497
    824.00000000       -7895151       -1061497        4177411        4634229
    828.00000000        3815410        -215793        -492204         549868
    832.00000000        3379985        2952693         811391       -3032169
    836.00000000       -6580004       -7281249        -984978        6006734
    840.00000000       10549167        9466492        1849705       -5419787
    844.00000000       -9542724       -8387764       -2869155        3860729
    848.00000000        6067083        4670663         182496       -2132291
    852.00000000       -1672176        1572463        1420245         564187
    856.00000000        -952125       -5443661       -5280525       -1541650
    860.00000000        5031444        8849381        8157698        1587582
    864.00000000       -5003121       -8996637       -8621656       -2336083
    868.00000000        3058656        6571470        5277128        1169579
    872.00000000        -700763       -2078296        -298682         518686
    876.00000000         112493       -1418606       -3276929       -4800467
    880.00000000       -1412430        4130305        7972917        8270346
    884.00000000        3281731       -4001245       -8985840       -8299015
    888.00000000       -3220785        2660868        6901533        6876116
    892.00000000        3234630       -1645114       -3382156       -2503854
    896.00000000       -1056117         546944        -517289       -2534069
    900.00000000       -3910391       -1846406        2506720        5976675
    904.00000000        5936307        3700630       -2971036       -8289115
    908.00000000       -7776991       -4080451        2399021        5816386
    912.00000000        7151207        4771571         492176       -2816796
    916.00000000       -4211009       -2216451        -586209       -1373743
    920.00000000       -1868499       -1429526        -968784        1882711
    924.00000000        6240988        5552007        1448746       -3724994
    928.00000000       -6579892       -7306047       -3953256        1916629
    932.00000000        6855788        7893715        3199127       -1439551
    936.00000000       -3072435       -4471558       -2194671        -686984
    940.00000000         581616         939902       -2022950          80437
    944.00000000        1113102        3612778        4396764        1733419
    948.00000000       -2616753       -6897322       -7753273       -3822012
    952.00000000        1138296        6213046        8658611        3490915
    956.00000000        -320283       -3899775       -4973982       -3586087
    960.00000000       -2388654        1257183        2717075        1837542
    964.00000000        -306809        1583542        1850612        3237810
    968.00000000        -130025       -2394828       -4753892       -5132598
    972.00000000       -2703537        1171705        6450877        6979124
    976.00000000        3759985        -992143       -5609536       -6236717
    980.00000000       -4089144       -1012558        2748152        2734869
    984.00000000        2843534         655398        -672030         327523
    988.00000000        1134458        -180619       -2050475       -3262418
    992.00000000       -3688732       -1415821        1703579        5013434
    996.00000000        5827865        4873378        -478186       -3943904
   1000.00000000       -5160210       -3798141         867571        1993939
   1004.00000000        3756844        2923533         329381       -1237424
   1008.00000000        -386721        -543586         321090          24013
   1012.00000000       -1299267       -2318096       -1745132        1436932
   1016.00000000        4051672        4358738        2653811       -1029062
   1020.00000000       -4158443       -5859007       -3297818        -473645
   1024.00000000        3394345        4959322        3944025         754613
   1028.00000000       -1397313       -1798223       -1653826       -1158038
   1032.00000000         571480         463579       -1853093       -1594940
   1036.00000000         774981        2214025        3636115        2097680
   1040.00000000         358051       -3369743       -3961569       -3791667
   1044.00000000         241013        3600026        5127862        4606179
   1048.00000000        1289543       -1298388       -2616641       -1614581
   1052.00000000        -936998         272530         345669        -282666
   1056.00000000         218012        -115048        1924674        2061522
   1060.00000000        1999125         513424       -3329265       -4529247
   1064.00000000       -2929750       -1202510        3124432        4409261
   1068.00000000        3141198         513782       -2796938       -3581942
   1072.00000000       -2259410        -171540         854720         843104
   1076.00000000         788195         145034         146042        1142184
   1080.00000000        1190774         662743       -1152126       -2636379
   1084.00000000       -2744572       -2295327         372027        2119470
   1088.00000000        4703129        2958402        1377839       -2547816
   1092.00000000       -3767363       -2670508        -897458         449943
   1096.00000000        2290843        1705674        1271724         -83151
   1100.00000000        -181537        -280578         174140        -627626
   1104.00000000       -1996665       -2252314        -757115        1008660
   1108.00000000        2342175        2931992        3271473        -127837
   1112.00000000       -2629112       -3798226       -3674722       -1490070
   1116.00000000        1897397        3001792        2530330        1302838
   1120.00000000         116626        -926746       -2273093       -1269516
   1124.00000000       -1632593       -1113827       -1512045        -556969
   1128.00000000         304609        1567097        2797807        1261419
   1132.00000000          99820       -3816815       -4807139       -3500071
   1136.00000000       -1565395        1938181        3117929        2752474
   1140.00000000        2165752        -648662       -1669494       -2508831
   1144.00000000       -2273074       -1680422          29878        -651667
   1148.00000000         785377        1558538        2492996        1434051
   1152.00000000        1611465        -463535       -3005554       -2689569
   1156.00000000       -2133469        -473908        2018571        3512702
   1160.00000000        2556675         606348        -556019       -2990585
   1164.00000000       -1763562        -939352        -396716         655136
   1168.00000000         737206        1924168         319089        1971344
   1172.00000000        1294902         169403        -459942       -2245268
   1176.00000000       -2334880       -2264321        -724145        1931606
   1180.00000000        3675275        2821528         965822       -1848211
   1184.00000000       -2380450       -3197897       -2279136        -794611
   1188.00000000         373646        1097965         565291        1325330
   1192.00000000         122360        1143492        -459106        -970190
   1196.00000000       -1194442       -1548624       -1398086         -48648
   1200.00000000        2612127        2452920        1593581         470320
   1204.00000000       -1253256       -2270512       -2274297       -1962094
   1208.00000000        -620447        1306872         701757        1266465
   1212.00000000        1856997        -452894         402151        -135843
   1216.00000000        -536379       -1420054       -1239044        -547797
   1220.00000000          85740        1413485        1499030        1557250
   1224.00000000         894874       -1484801       -2530516       -1810364
   1228.00000000        -892425         346855        1188964        1387169
   1232.00000000        1910948        -361532        -764390       -1073022
   1236.00000000       -1342189         -56106         191329        -429180
   1240.00000000        -187428        1193462         608307         779576
   1244.00000000         -56063        -154971        -986915       -2248653
   1248.00000000       -1227571         452629        1202303        2336481
   1252.00000000        1049423        1437512          31884       -1259192
   1256.00000000       -1827384       -1632965        -177784        -274052
   1260.00000000        1044359         543117         -82938         473171
   1264.00000000         965736         297778        -134623       -2053019
   1268.00000000       -1612675        -981408         -93297        1015369
   1272.00000000        1744385        2038321        1064337        -154452
   1276.00000000       -2031694        -937139        -748644         132401
   1280.00000000         830752        1014352        1547325         370632
   1284.00000000        -466745        -131221        -706914        -403389
   1288.00000000        -450397       -1147886        -992166         211154
   1292.00000000        1111482        1511801         939655         326392
   1296.00000000       -1716640       -1585676       -1404547        -578220
   1300.00000000        -499723         320958         755179        1133799
   1304.00000000         353725        -281158         -13424        -913628
   1308.00000000       -1070196        -433308        -683707         400361
   1312.00000000         913652        1323324        1155769        1454599
   1316.00000000        -202045       -2063991       -1480636        -905457
   1320.00000000        -382540         278685        1027235        1319678
   1324.00000000        1808799         596097       -1127776        -436728
   1328.00000000        -872629        -548167        -684232         164097
   1332.00000000         607311         699885        1226225         996584
   1336.00000000         -14542        -368058        -839056       -2012259
   1340.00000000       -1227239       -1026682         682150         989214
   1344.00000000        1473854         971951         366796        -190981
   1348.00000000        -913497        -780177        -864534        -170470
   1352.00000000        -315700        1082834         295121         880255
   1356.00000000         600169         455363        -794583        -477225
   1360.00000000       -1396247       -1274086        -352450         632372
   1364.00000000         736071         890967        1573907         282969
   1368.00000000         520696        -973413       -1968870        -486406
   1372.00000000        -430627        -190325         922662         303206
   1376.00000000         -97101        -100693         166567        -407579
   1380.00000000        -650822       -1164153        -849500        -458584
   1384.00000000          42202         102878         911589         847592
   1388.00000000          58898        -706460       -1303146        -957342
   1392.00000000        -162109        -140666         102143         533164
   1396.00000000         326900         257370         479329        -463319
   1400.00000000         265249        -692382       -1222566        -187110
   1404.00000000        -665038         217444        1183080         858206
   1408.00000000         673422        -292254         307005        -582566
   1412.00000000        -628809          55136          67789         480031
   1416.00000000         306097          80841         660476         473171
   1420.00000000         -75438        -874846        -443983        -750216
   1424.00000000        -699810        -278836        -135996        1504660
   1428.00000000         886217         140428          20841       -1002591
   1432.00000000       -1052266        -731699        -225231         483304
   1436.00000000         837407        -332836         707309         698884
   1440.00000000         107134         562737        -377221        -919321
   1444.00000000        -889847        -320504        -188052         539530
   1448.00000000         871410        1088171          90933        -726599
   1452.00000000        -509919        -852477          87321        -360952
   1456.00000000         362503         738732          63134         125139
   1460.00000000         141966        -710225        -566740        -324215
   1464.00000000        -637570        -151306        -235695         640584
   1468.00000000         662801         143151          92234         416448
   1472.00000000         -47541        -287576        -888963        -333888
   1476.00000000          71468          71556         435030         590922
   1480.00000000          82323        -109435          72538        -936687
   1484.00000000       -1292498        -727206         502386         199404
   1488.00000000         941756         753852         419125         415274
   1492.00000000        -767335        -548010        -730063        -559442
   1496.00000000          42856         908237         601672         787476
   1500.00000000         324425          62750        -586894        -731747
   1504.00000000        -413207        -539753         136687        -276083
   1508.00000000        1019619        1224919         801465         725469
   1512.00000000        -471361       -1029809        -707549       -1223250
   1516.00000000        -149177         236389        -359841         704002
   1520.00000000         439874        -153535         220525        -529227
   1524.00000000        -770325        -696395        -644525        -291992
   1528.00000000         130334        1065104         719110         235062
   1532.00000000        -139923        -178143         125531        -259814
   1536.00000000        -605084          98762         697391          29452
   1540.00000000         480422        -321553        -422692        -265570
   1544.00000000        -774716        -717018        -494934        -923277
   1548.00000000          51703        -352544          28752         851184
   1552.00000000         790049         441360        -231656        -754228
   1556.00000000       -1000197         115255         -95309         310570
   1560.00000000         843946        1058204          11492         241572
   1564.00000000        -534970        -341099        -873457        -223878
   1568.00000000        -551801        -285660          87860         -77986
   1572.00000000         526605          39060        -477394         -35931
   1576.00000000        -697109        -365513        -609023         -71348
   1580.00000000         243743         564446         626209         289214
   1584.00000000         157660        -331928        -777838        -179339
   1588.00000000        -420881        -168659        -202997          42009
   1592.00000000         841781         744020         427751        -440119
   1596.00000000        -377592        -874031        -592752         152402
   1600.00000000         247137          88836        -136014         253660
   1604.00000000        -133826        -181803        -616098        -455514
   1608.00000000        -125999        -699354         110647        -237580
   1612.00000000         -49048         315740         544652         433811
   1616.00000000          46700        -383674        -767955        -542944
   1620.00000000        -596278        -308719         564673         250108
   1624.00000000         209950         257265        -528456        -141442
   1628.00000000         167723        -127679         182878        -377795
   1632.00000000        -191438         123454         751363         179644
   1636.00000000        -348908        -255962        -912888        -508868
   1640.00000000        -778889         -26190        -198254         938372
   1644.00000000         995022         271793         -71068         -14705
   1648.00000000        -973686        -164955        -359880         328853
   1652.00000000         427016        -186551         -28860         144464
   1656.00000000         202972          82172         -43627        -422297
   1660.00000000        -534990        -390904         101918         -14108
   1664.00000000        1009347         347363         313569        -130647
   1668.00000000          -8365        -235341        -234655        -252575
   1672.00000000       -1079614         -71598         565920         -35945
   1676.00000000        -156971        -237279        -141746        -206193
   1680.00000000        -225548        -475641        -324782          38723
   1684.00000000        -142992         321240          50211         -35254
   1688.00000000         102657        -273149         -52991         152361
   1692.00000000         109477          -7808         546703         160747
   1696.00000000         -62124          50855        -342996        -151110
   1700.00000000        -165410        -251161           6478        -567302
   1704.00000000        -546388         469604         -62627         192790
   1708.00000000         413618        -374946        -290742        -391159
   1712.00000000          65274        -116908         -20790         331264
   1716.00000000         470169         180391        -314346        -450204
   1720.00000000          62151          40436          97486          -2102
   1724.00000000        -490258          37102         483564         -26015
   1728.00000000         162719          16678         166244         329579
   1732.00000000        -263617         -67953         183415         -70618
   1736.00000000         481742         446812         147424        -132202
   1740.00000000        -186380        -163644        -304470        -220579
   1744.00000000          49015          42365        -118033         -17534
   1748.00000000         557614         -31379         283181        -207806
   1752.00000000         490233        -606505         241098         166574
   1756.00000000         783961        -174545          85625          13401
   1760.00000000        -534175        -304024        -377492        -360412
   1764.00000000        -238566         167678        -227526          38570
   1768.00000000         123387        -168495        -224169        -327763
   1772.00000000         266872          38401        -313849        -559076
   1776.00000000         616833         364448         -61797        -159780
   1780.00000000          -3743        -149217         212699        -490000
   1784.00000000         105353          29239         182703         379073
   1788.00000000        -465984         130517         122751         254351
   1792.00000000         155974         204659        -430741        -218730
   1796.00000000         434515         351387         428495         218806
   1800.00000000         201294          21250        -428832         -98592
   1804.00000000        -693856        -144344          19441         -36160
   1808.00000000         179720         -48019        -417900        -151466
   1812.00000000          79523        -189135        -370266          62596
   1816.00000000         243375         604246         372755         317958
   1820.00000000           1098        -229978        -132389        -163122
   1824.00000000        -455558         -91313         183142         291144
   1828.00000000         268237         345320         -47230            557
   1832.00000000        -124515         -42551          36420        -207389
   1836.00000000         161551         161845          44610         -39175
   1840.00000000          91618        -441546        -188296        -221244
   1844.00000000        -393633         159985        -228056         -16350
   1848.00000000         223334         190586         282963         306395
   1852.00000000         203254        -167888        -543214        -152998
   1856.00000000        -247606        -204975         311507         355188
   1860.00000000         386521         -15620        -192052         235811
   1864.00000000        -343492        -590399        -456681           1026
   1868.00000000        -125342         315306         393961         -14785
   1872.00000000          93892         264866        -200389        -522385
   1876.00000000        -235459        -479610         112899         141975
   1880.00000000         125523         251889         -85161          97779
   1884.00000000        -165477        -838016        -466401        -504786
   1888.00000000        -450966          -5386         552623         127254
   1892.00000000          59226         147391          55955         116039
   1896.00000000        -273251          -7706         -37472         192787
   1900.00000000         130594         422125         337577         522247
   1904.00000000           1319         -10993         128210        -400478
   1908.00000000         -70468        -426805          65208         308812
   1912.00000000         392326         238970         254000        -115111
   1916.00000000          -5918        -335317        -286060        -472415
   1920.00000000        -367829         129796         177068         252018
   1924.00000000          13907          36515         -47149        -205260
   1928.00000000        -536900        -371451        -106213         101054
   1932.00000000          99022         367828         323911         352733
   1936.00000000         -47138         258602        -488567          94730
   1940.00000000        -103269        -102212         220892          83637
   1944.00000000         116597          65557        -382395            207
   1948.00000000        -303569        -168652        -300321            714
   1952.00000000        -108963         591353         317205         290524
   1956.00000000         129644        -509753        -120079        -330855
   1960.00000000        -441892         -89771         -45805          59100
   1964.00000000          39429          56734        -108805         456350
   1968.00000000        -162651         -20442        -570165        -228730
   1972.00000000          91733          94438         478315         340816
   1976.00000000         233483        -195951         101185        -258472
   1980.00000000           7473        -420403          88542          -9954
   1984.00000000          97257        -190125         209585        -197554
   1988.00000000         183214        -274453        -268916        -259103
   1992.00000000         416957        -172859         203557         362278
   1996.00000000         384016         110630         -36351        -319386
   2000.00000000        -347352          14052        -355927        -102511
   2004.00000000         -59714         205967          59951         -54047
   2008.00000000         -59521        -133503        -203114         -40914
   2012.00000000        -383659        -106843         -28344         161823
   2016.00000000         239632         155204         -38680         -94421
   2020.00000000        -135307         -95854          38425         -26962
   2024.00000000         -61778           9272        -130173         570140
   2028.00000000         159589         103655          87606        -104130
   2032.00000000         -66289        -205684         170106         189639
   2036.00000000         183042         197197         361345          82938
   2040.00000000        -182615        -422738        -426652        -146271
   2044.00000000        -271980          47776         272900          78511
   2048.00000000         272164         -70844          78320         137371
   2052.00000000          76689        -346474        -139258        -432254
   2056.00000000         -36259         219721          26396         -14191
   2060.00000000         360211        -115401        -123103        -272796
   2064.00000000          51545         -48009          -3500        -167645
   2068.00000000         381366         254325          89147         -50546
   2072.00000000         191296         -73999         -43413         -25555
   2076.00000000          10804         155167          99526         458742
   2080.00000000         266412         290933         250613        -117890
   2084.00000000        -233163          59443         120252          -9649
   2088.00000000         -56771         400758         142733          22793
   2092.00000000        -366828        -167301        -110852        -168641
   2096.00000000         175395        -190139         256504         239589
   2100.00000000         284235         110461        -112955        -163750
   2104.00000000         -41516        -308325        -247961         -22065
   2108.00000000        -117279         158481         381868         267485
   2112.00000000         383064        -130511         -65994        -130385
   2116.00000000         -94676         121665         -19783         112099
   2120.00000000          79779         168922         279048        -250512
   2124.00000000          82374        -167992        -330613         -64199
   2128.00000000          33610         185751          36937          54874
   2132.00000000          76784        -150142        -211919        -460935
   2136.00000000        -140331          96128         -31586          30708
   2140.00000000          90484         152113         139120         156543
   2144.00000000         -67560         151650        -168282        -316989
   2148.00000000        -477300        -318041          93038          90150
   2152.00000000          83626         148169         -41260        -227564
   2156.00000000        -196203         -34100          55870         204549
   2160.00000000          14212         267813         204734         -35127
   2164.00000000         208966         181537        -441850         -88404
   2168.00000000        -162591          20452         207917         148817
   2172.00000000         360409         264489         150309         -13466
   2176.00000000        -305981         -49278          77681          35802
   2180.00000000         -23683         143296            211        -170093
   2184.00000000         370263         -58757        -359382          53407
   2188.00000000         116533         -21506        -228662          -6425
   2192.00000000         415911         178229        -204335         324791
   2196.00000000          -1768          37107        -154195         -85148
   2200.00000000         194152          80518         325550         -55560
   2204.00000000         137134         107778         191850         118077
   2208.00000000         114440          81231         -72177         242809
   2212.00000000        -158585         146186         279449          78419
   2216.00000000        -123527        -111555        -111959         147384
   2220.00000000        -145709        -115297         400480         -19927
   2224.00000000         116786        -182814        -297864         -61335
   2228.00000000         168200         -59884        -202739        -110878
   2232.00000000         -90489         211293        -157459         406972
   2236.00000000          30679          59769         -66435         -18534
   2240.00000000         -60863        -147751         -26957         144214
   2244.00000000          -3325        -131582         -38795        -154664
   2248.00000000         -86127         -79911         203965        -103139
   2252.00000000          49332          75384          90506        -100293
   2256.00000000         -14133         -71283         -53558         -19292
   2260.00000000        -140716          26075        -131933         -67139
   2264.00000000         -64821         -57120         317824        -163940
   2268.00000000         -86946          43213         143882        -117408
   2272.00000000         392494         -52424         127078          16920
   2276.00000000         147514         207530         -17812         -56767
   2280.00000000        -180737         -59532        -189439         254361
   2284.00000000         100465          67347         -42798         105468
   2288.00000000          21863        -244825          27746         -34360
   2292.00000000          58405         -35816          31908        -180309
   2296.00000000          96656         166888             49        -162843
   2300.00000000         -67786          89385        -110833         252248
   2304.00000000         262855         -86669         -12543         168973
   2308.00000000         -17299          60746         103490        -145891
   2312.00000000         -47383        -112723           1536         -86366
   2316.00000000         -84130         110495         -40156         -16483
   2320.00000000         -18929          59929         -94165         -69660
   2324.00000000        -133814          79945         -21826         141348
   2328.00000000          31903         126270          51236         206702
   2332.00000000         169634        -107378          -4805         110177
   2336.00000000         236636          55729          97680         -34032
   2340.00000000          79344         -40124          36425         -40812
   2344.00000000          -1880         -25840        -103382         203407
   2348.00000000        -146772          56418        -173029         150558
   2352.00000000          10447        -163168          -2142         -17399
   2356.00000000         113829        -232455         145010         151381
   2360.00000000          79546         -45500         211337         108763
   2364.00000000        -211795         147602         181886          89945
   2368.00000000         -89130         194728         143833        -275357
   2372.00000000         -26667        -121585          82342         166145
   2376.00000000         -67300          93316          39569          11714
   2380.00000000          71101         -58661          10843        -125905
   2384.00000000          12402        -120693         -96069        -134347
   2388.00000000          41690          75850         -39545          38480
   2392.00000000        -103439         122251         237480         -12141
   2396.00000000         -38423         -48424         125985          65037
   2400.00000000         -11541         -35356          53786            359
   2404.00000000          23157        -155860          45667          98430
   2408.00000000          65798         -21609          65488        -168757
   2412.00000000         -98732         -55901         103479           -114
   2416.00000000         -57183          85397           4373          70335
   2420.00000000          97354          73447         -41594        -105156
   2424.00000000         -66355         203309          -1224         230514
   2428.00000000          18893         227791          10882         -22008
   2432.00000000          61806          -3567         112255         -51073
   2436.00000000         157356          76457        -151116         -84000
   2440.00000000         178846         313951          27494         -77952
   2444.00000000          84967         -64102        -148746         205003
   2448.00000000         -20184        -184831         -77204         -27270
   2452.00000000         -79032        -113735          61248        -118472
   2456.00000000          94164          59030         243488           2568
   2460.00000000         -96486         133611         146046          66967
   2464.00000000         178552          20082        -180140         -72901
   2468.00000000          10396         106139         148824         212096
   2472.00000000          -5109          62482          40490          45038
   2476.00000000         -77376          55341         -96791        -166430
   2480.00000000          29873           6727          35558          81520
   2484.00000000          64061          34467         172598         -61727
   2488.00000000        -103293         -43126           2902          53793
   2492.00000000          82614         -35949          10779         -90381
   2496.00000000         134978          54376         183703          27755
   2500.00000000          63879          46251         195289         -29567
   2504.00000000         122849         110023          99791          -6783
   2508.00000000        -146083        -106768         -46869         -87204
   2512.00000000          18103          12464         149076          50319
   2516.00000000         -39636        -179472        -254111         -45909
   2520.00000000         -63167          -6265         -19358          28277
   2524.00000000         -65772         281475         165932         -46068
   2528.00000000         -84282        -146515        -118414          64755
   2532.00000000         251397          89573         136301          71946
   2536.00000000        -107469         -10984         -96517           4151
   2540.00000000         -17240          63797        -188474        -231662
   2544.00000000          51156         -19529         197157         117627
   2548.00000000          41092           4136         164651         -49554
   2552.00000000         -50751           4174        -139659          47664
   2556.00000000          -9930         -46485        -122161          21155
   2560.00000000           1079          34160         -97830           2939
   2564.00000000         -41914         -96829         144851          19290
   2568.00000000          46101          27793         -11598            785
   2572.00000000         -19021        -137383          53412         101881
   2576.00000000        -131850         217043         -62027         -40171
   2580.00000000          14725        -107430          68073          54897
   2584.00000000         -98328          49056          84113         -27018
   2588.00000000          10634          86042         -74872         224097
   2592.00000000          67953         -24832          59477         -30618
   2596.00000000         147416          33923         -66386         164780
   2600.00000000         -24344         100190         -98017          52548
   2604.00000000         186400         108147         174356          40442
   2608.00000000          73605          69735          16605         -38987
   2612.00000000          60387          -7014          21758         -82230
   2616.00000000          91255         -31251          17137         131435
   2620.00000000         -80006        -225366        -191640        -155906
   2624.00000000         -10064         154864         130256          57566
   2628.00000000          79551          64489         118503          92474
   2632.00000000         -55871           1444         -71916         114355
   2636.00000000          57276          72328         -33789          84582
   2640.00000000         144415          34824         -79371         -69440
   2644.00000000           6253         -62049         -20176         -88989
   2648.00000000         118629        -104234        -214459          19683
   2652.00000000         -10966          75164          28375           -559
   2656.00000000          -1584          77231          59410         183868
   2660.00000000          87373          55648         -58168         -31540
   2664.00000000        -228784         105208            608         -42831
   2668.00000000         178328         120660          -3060          89716
   2672.00000000           1026          -7778         -44760          12260
   2676.00000000         153630        -118647          35022          -6432
   2680.00000000        -103868          23003          -3144         104508
   2684.00000000         -75042        -135078          70219         -38304
   2688.00000000            778         118376         -50041          59321
   2692.00000000          28456         -64549          47576          15652
   2696.00000000          78887          21933          28414         -55004
   2700.00000000          50011        -133867          26049          15908
   2704.00000000          -8070         -57021         -68318        -102488
   2708.00000000         124036         120571          87690          88755
   2712.00000000        -140167        -162908         -63214         -17609
   2716.00000000          61080           6585           4722          43699
   2720.00000000         -48320         -15842           3253          20768
   2724.00000000          22870          48514         142977         -19672
   2728.00000000         -34721          28886          73353         -47199
   2732.00000000        -117541         -58102          -9760         -17087
   2736.00000000          66326        -114636          41657          38907
   2740.00000000          39218         -60743          68672           7372
   2744.00000000          59858          82588         -65601          25455
   2748.00000000         -13069          -1191         -24658         -28863
   2752.00000000         -17817         -57639          32152         -44309
   2756.00000000         -99498         -52863          10805         -25841
   2760.00000000         -49255         -32282          74428         -31580
   2764.00000000          -7610         -24715         -37577          18463
   2768.00000000         185457          63909          46341          49336
   2772.00000000         -36304         146776          66389         -82957
   2776.00000000          18015        -162600         -74126          20148
   2780.00000000          -4358         105927         110570         -42550
   2784.00000000          -5715         -84631        -175204          -2639
   2788.00000000          93951         104429          24422          14223
   2792.00000000         -59448         -27161         -18465         -47070
   2796.00000000         156885          75944          17254          64337
   2800.00000000          -5996          43508          98803          81837
   2804.00000000          13922         -76772         -13905          37070
   2808.00000000          26716          21357         141496          65311
   2812.00000000           7693          63007        -105482          -3710
   2816.00000000           5835          90040          71430          86546
   2820.00000000         123516         108808         -10631          13696
   2824.00000000          20663           4358         -72772          58846
   2828.00000000         -15099          -8658          38310          89222
   2832.00000000          64530         -38359         -76729          52942
   2836.00000000          19176          64822         -26628          38451
   2840.00000000          62414         -62870          51772         -55787
   2844.00000000        -167419          19898          70063          21496
   2848.00000000          20689         -27703         -58055         153309
   2852.00000000         115650           1515           3729         -61242
   2856.00000000        -151936          72263          32343          93670
   2860.00000000          56592          18384          42791         -63168
   2864.00000000          22702         -80484          78186          10596
   2868.00000000          70519          16606          12784          22268
   2872.00000000          23304          -7405          43508         -68977
   2876.00000000         -88457         -81271         -19567          64890
   2880.00000000          64912          92833         -74999          18087
   2884.00000000         -13618         -27415          20933         -54249
   2888.00000000         100274           8744          10416          93805
   2892.00000000         -35420          38704          25284         118535
   2896.00000000         -87593         114724         -45018          13667
   2900.00000000          50283          79306         -23160          72671
   2904.00000000          13656          63329         -18034         -22552
   2908.00000000          27116         -15388           5528          -8976
   2912.00000000          46509         -30063         -50948          54434
   2916.00000000          77288         -33419          57468          47062
   2920.00000000         -84848        -127309          66554          32189
   2924.00000000           1639         -30901         -68331         -54009
   2928.00000000         -13044          57846         -30241          -4744
   2932.00000000          51494          83959          69725          97555
   2936.00000000          60040         -55165          18960         -87239
   2940.00000000           2615          17916          31620           -967
   2944.00000000         122862         109152         -37653          15306
   2948.00000000         -11442         -31767          38850          16038
   2952.00000000         -71246          -5638          16241         -30781
   2956.00000000         -21251           9486          29955         -85066
   2960.00000000         -27532          33428          60030           3572
   2964.00000000          51145         112212          36803         -12415
   2968.00000000          -9772          60349            465          12878
   2972.00000000          -7268         -39575          38406          24946
   2976.00000000          40156          35684          60356         -13720
   2980.00000000          15374           7740          -2482           3537
   2984.00000000          22702            529         -57018          71388
   2988.00000000          26240          26422          67991          10000
   2992.00000000         -49429         -89883          28490           6760
   2996.00000000         -25824           -159         -12283         -32986
   3000.00000000          47401          19959          23435         -19033
   3004.00000000        -108605          44338         -53517          58933
   3008.00000000          15813         -42559         -41458          11854
   3012.00000000         -47701           3392         -41615          -5900
   3016.00000000           3096          62741         -14122          22032
   3020.00000000          71432         -31901          47768          42257
   3024.00000000         -33872         -20221         -33009          29789
   3028.00000000          71861          42707          52096         -77868
   3032.00000000          47378         -21130          41343         -46357
   3036.00000000          -9255          69746         -38345          36189
   3040.00000000          -8550         -64715         -89997          16156
   3044.00000000          36524          30984         -40571         -36187
   3048.00000000          -8446          34799         -19314         -90551
   3052.00000000         -73499          27655         -37498         -64188
   3056.00000000          70537         -23845          65439          89836
   3060.00000000         -11155         -59002          76483         -91010
   3064.00000000         -24309          29482          27005         -45237
   3068.00000000         -27598          43686          84175         -38515
   3072.00000000          14981          -8880           5455           2006
   3076.00000000         -63421          58558         139923          53332
   3080.00000000         101536           2442          19615         -28436
   3084.00000000          -5774         -73825          54114         -30779
   3088.00000000         -29147          58096           3854          10294
   3092.00000000          56059          32311         -18434         -41647
   3096.00000000         -85910         -67528         -42827           2969
   3100.00000000          32256         -11184          13176          58266
   3104.00000000         -20087          -3420          20817          19164
   3108.00000000          45024          42877          33240         -47593
   3112.00000000          86943          45410          42286         -29120
   3116.00000000         -40649         -60956          43825          30385
   3120.00000000          54321          83513         -29685         -61808
   3124.00000000          26448           2838          23111          16812
   3128.00000000         -84088         -15406         -24893          43926
   3132.00000000           1150         -19426          56048          60593
   3136.00000000         -54197           9726          -9900         -52747
   3140.00000000           4667          63047          46247          51003
   3144.00000000          47576          -6830         -63194          -6571
   3148.00000000          17930          -3425          71833          33120
   3152.00000000           5379         -35364          -6160          40036
   3156.00000000          35758         -32881          13687         -69401
   3160.00000000         -55462           7605          45536          -9250
   3164.00000000          -6542         -13870         -18026         -64752
   3168.00000000          42120          59478          43288         -33208
   3172.00000000          22826          12905          19826         -64625
   3176.00000000          74173          -6665          30845           6037
   3180.00000000         -44647           1364          60130          33080
   3184.00000000         -17851         -30214           9285         -43646
   3188.00000000          39026         -14915         -50656         -83637
   3192.00000000           7308          42806         -38009          -3616
   3196.00000000         -30838         -13806          23002          71074
   3200.00000000          48712         -24433          10957          16591
   3204.00000000          63786          17197         -26226         -53245
   3208.00000000           7199         -45070         -44527          19791
   3212.00000000           5125          31400         -13307           1203
   3216.00000000         -81128         -37660         -10918          40855
   3220.00000000         -88734          27671          -7393          -8883
   3224.00000000          16087          18941          33861          46569
   3228.00000000         -15702          40328         -53375          24282
   3232.00000000          35170          18223         -12742          -3078
   3236.00000000          28073          45054         -16930         -33519
   3240.00000000          17547          25663          49401         -34144
   3244.00000000          10630          -7402           2600          -1995
   3248.00000000          -5575           3220         -17355            730
   3252.00000000         -20681         -23215          -4509          53451
   3256.00000000           6621           3500          19731          12303
   3260.00000000         -14175          22425          62311          10161
   3264.00000000          31332          84961          12654           8710
   3268.00000000          -5167         -25312          35470         -13871
   3272.00000000         -27587          25082         -34421          27093
   3276.00000000          64651          -2191          -8643         -29441
   3280.00000000         -19760          -4151         -50939         -50066
   3284.00000000           2327          12062          32188         -46448
   3288.00000000          -3381         -30025          85568          28187
   3292.00000000         -22961          12819         -12827          30964
   3296.00000000         -27675         -17512         -22848          24655
   3300.00000000          10751          23427          33698          45405
   3304.00000000          -2801          28237          22586          26508
   3308.00000000         -37076          43264          15431          54949
   3312.00000000          23192          29964          -6474         -16009
   3316.00000000         -33630         -46047         -15742          20225
   3320.00000000         -28056          -9917          -3196           8418
   3324.00000000          80687          -2195          50738         -12213
   3328.00000000          26497         -12954          17651         -27712
   3332.00000000         -14463          12000          -3976          19955
   3336.00000000         -20996         -31594         -33582          35348
   3340.00000000          51682          16444          24951          19714
   3344.00000000         -13520           4630          31259          16000
   3348.00000000          27988          18766          61657         -43633
   3352.00000000           1436         -13233          18598          57501
   3356.00000000           2281          16034          32180          -9923
   3360.00000000          22132         -44005           7411          45911
   3364.00000000         -47205         -41325          58916         -31784
   3368.00000000          31193         -16799          -9637          27576
   3372.00000000         -29051         -30831          34713          56491
   3376.00000000          45830          41395          53456          16361
   3380.00000000         -30835         -36344          14311          28389
   3384.00000000          47108         -18659         -19533           1320
   3388.00000000         -19396          27682          35602          11389
   3392.00000000          66973          -7953         -71071         -41243
   3396.00000000          15619         -28952          26801           9558
   3400.00000000          -3297          13960          21278          13579
   3404.00000000         -35290          58685           9404          10433
   3408.00000000         -64260         -17923          45289          54169
   3412.00000000          19943         -32517          15993           9218
   3416.00000000         -21960          17610          -5098          47878
   3420.00000000           3433          47979          20158          -3338
   3424.00000000           6708          47803          30300         -38003
   3428.00000000         -37698         -10779          43902         -19264
   3432.00000000          36358         -25104          11502         -20080
   3436.00000000          -2900           1995          42251         -31334
   3440.00000000         -20037          21768          18374         -15008
   3444.00000000          11107          29748          30245         -13639
   3448.00000000          19307           -255          30079          23329
   3452.00000000         -11829          30976         -13801          -5324
   3456.00000000         -46272          11859         -61081          15653
   3460.00000000          16508          23216          13278         -13883
   3464.00000000         -47587          48142         -31456          -6174
   3468.00000000          43848          29653           7639         -22881
   3472.00000000          18474          -9007          29940          43791
   3476.00000000          41814         -16117         -55351         -29518
   3480.00000000         -18207          -8314         -36461          27160
   3484.00000000          24879          11536          -6139         -24688
   3488.00000000          17664         -28339          -9367          22293
   3492.00000000           2009         -10381          33888          22810
   3496.00000000         -32139          20596          17177         -38377
   3500.00000000           5579          -4655         -26596          44633
   3504.00000000         -21166          35725          20419          43959
   3508.00000000           4140           6437         -23854          10342
   3512.00000000          19193          19860         -52772           6548
   3516.00000000          69596         -15796           6668          16178
   3520.00000000          16561         -39644           5955         -20846
   3524.00000000          -2549         -11044          10903          49216
   3528.00000000         -87579           5609         -40416           4854
   3532.00000000         -38883           3704         -27946          -7656
   3536.00000000             70          24743           -911          23250
   3540.00000000          60374          -8079          10295          22393
   3544.00000000         -13802          66807         -27289         -38659
   3548.00000000          32220         -45808          15249           1888
   3552.00000000           8527          21472         -18370         -26762
   3556.00000000          -8626          54857          -4745         -10035
   3560.00000000          27694           8720          19249          -8652
   3564.00000000          19430          36822         -18147          17408
   3568.00000000          15787         -27159         -11495          25591
   3572.00000000            517             31         -29433           5146
   3576.00000000          26606          -6675           1529           5744
   3580.00000000          20095          14144          25638         -31513
   3584.00000000          -1015           5978         -18552          12877
   3588.00000000          17790          -3511          12763         -15563
   3592.00000000          23464          29463         -22069           6030
   3596.00000000          15008          29728          26183          -1230
   3600.00000000         -20130           5172         -12838          13471
   3604.00000000         -36026          44611          23328         -30075
   3608.00000000          10882           1140         -18434         -37418
   3612.00000000          13143         -17758          21584          12508
   3616.00000000         -12989         -10227         -42685          17817
   3620.00000000          15568          12941           8590          62907
   3624.00000000           6778         -20153         -18012         -14502
   3628.00000000         -20149           4708          30247           -408
   3632.00000000           -430          11919         -27416          30565
   3636.00000000          26085          37711          26283          27913
   3640.00000000         -34724          -1333         -22253          -2128
   3644.00000000           5691           -334           2305         -13187
   3648.00000000          -8702           1027           4785          13738
   3652.00000000         -32923         -25392           3962         -13114
   3656.00000000          -8392          -4752          50617           3834
   3660.00000000         -39028         -16838          32930          23441
   3664.00000000          13262           8519          38877          19508
   3668.00000000          15706          -8751          31388         -22688
   3672.00000000         -33471          -6491          22771          -7834
   3676.00000000         -25033           6977           3199          18017
   3680.00000000          -1759          -5993          36613           5270
   3684.00000000          40654           4358          -8307           4876
   3688.00000000          12215         -33506         -28046          -6560
   3692.00000000          -5922           7175         -14953          25706
   3696.00000000          11183          11571          12280          30533
   3700.00000000          -1530          47360          13153          26214
   3704.00000000           4032          31657           5766         -22922
   3708.00000000           1335          -4221         -17087          -1508
   3712.00000000          45298          14571          20016          15441
   3716.00000000          -9001           6283           5877          -9066
   3720.00000000         -19454          13391          -8720          15410
   3724.00000000          39869           -579          34196         -16921
   3728.00000000         -30021          20093         -22354         -19172
   3732.00000000           8492           6266          22385          -6660
   3736.00000000         -20424           6676          21109           -637
   3740.00000000           5971         -12022          17654          10553
   3744.00000000          -1285         -10501         -14723         -13687
   3748.00000000           4717           7160           1540         -31477
   3752.00000000         -17559          25678          -8626          14381
   3756.00000000         -11935          -8174          15618          15037
   3760.00000000          -9858         -29771            662           6892
   3764.00000000           9455         -28044          -1461         -16715
   3768.00000000          16462          20306          12616         -18394
   3772.00000000          17552          26663         -20812            113
   3776.00000000           8345           3776         -11374          -8697
   3780.00000000           7352          -9709          -3419           5048
   3784.00000000          -9051          27072          22550          -8338
   3788.00000000           -837         -26871           2520          13243
   3792.00000000         -35717         -16265         -11516         -24668
   3796.00000000         -17990          -1301          15374          -7283
   3800.00000000          -3495          -7057         -23320          18431
   3804.00000000         -10323          -6969           1886         -22921
   3808.00000000            910           5830          16264           4005
   3812.00000000          -9476         -37647          10520            452
   3816.00000000          -5147          11629           9388          22825
   3820.00000000          12608          29118           9515            527
   3824.00000000         -19295         -14573          -3275         -32897
   3828.00000000           1174          -9351          18137          10270
   3832.00000000         -11582          13910          -4324          -5761
   3836.00000000          -6962         -33625         -26302          -1949
   3840.00000000           2307           6208          16772         -16502
   3844.00000000          23371          30451         -17094          -1282
   3848.00000000         -26394          19707          20392          -5836
   3852.00000000          13486          -1379         -38403          20348
   3856.00000000          -2341          -5966          -6234          -8673
   3860.00000000          17946          38218         -26000         -11778
   3864.00000000          19525          21112          14670          10964
   3868.00000000         -35355          -6079           4513           1211
   3872.00000000           8247           5599          -6477          -2412
   3876.00000000          14020           5527         -14149           3476
   3880.00000000          -7447           3068          -9340          21458
   3884.00000000         -36028          -4467          -6747          15576
   3888.00000000           -404          13898          17490            139
   3892.00000000         -28661         -12694           7783          16238
   3896.00000000          -4479           5627          16557          -7914
   3900.00000000          -4125           7401          12166          26393
   3904.00000000          -7991          23837         -14282          23202
   3908.00000000          -4986           4713           7869           2286
   3912.00000000           4942           4419         -24970         -18545
   3916.00000000         -21906         -12515          -9101          32614
   3920.00000000           4389         -24949          13540          38000
   3924.00000000           6236           -186         -15623          -1613
   3928.00000000          12250          -6677           2641           -428
   3932.00000000          -9888           6395          13460          -5388
   3936.00000000           2642         -17420          19292          -6171
   3940.00000000          14613         -12682         -24912          17668
   3944.00000000          13744           -481           3345           8711
   3948.00000000         -24542           3398            253         -19725
   3952.00000000         -11143           5982          -2544          11452
   3956.00000000         -11820          -6147           8884          -1838
   3960.00000000          -9551           2150          -9120          -6455
   3964.00000000             -1         -11634          12778           1883
   3968.00000000          24634         -17386         -11327          18646
   3972.00000000            163          -5999          -6788         -40941
   3976.00000000         -12829         -12815          -3645          -7453
   3980.00000000          -1312          19107          24116          -5332
   3984.00000000         -13161          -1567           1440          -4044
   3988.00000000         -14378          10433           8432          -9695
   3992.00000000          -3630         -17554           5445          -7625
   3996.00000000          -7776         -13845         -29916          13911
   4000.00000000         -19357          -4786           6998           7908
   4004.00000000           -244          -7314         -14919          13257
   4008.00000000           5774           2444          -2242           2640
   4012.00000000           2564         -15553           5764            608
   4016.00000000           7233           6214          -7933          10945
   4020.00000000           8048            187          -6460           8204
   4024.00000000           8829           6312         -23197            710
   4028.00000000            800         -12614         -27185          11447
   4032.00000000          13510           9902          -3907          -5098
   4036.00000000         -16607              7          28054          -4792
   4040.00000000            943           1016         -13797          20856
   4044.00000000         -17854          -1236         -17206          -5981
   4048.00000000           4590         -20303         -14183          -5126
   4052.00000000           -662          15919          -5077           8031
   4056.00000000          -7151          14587          -3546          -9006
   4060.00000000          -7887          17223           4428          -7135
   4064.00000000          -2705         -22579            129         -12667
   4068.00000000           -958         -28553          -8418          21368
   4072.00000000         -11130         -15182           2362           1964
   4076.00000000          11688         -14890          -4774          -4482
   4080.00000000           7485          -4942         -13631           9758
   4084.00000000          10978          12366          12257         -13613
   4088.00000000         -12423         -20727          -9482          -4989
   4092.00000000            736         -16806           8636           9560
   4096.00000000          11048         -20166           1870          -6334
   4100.00000000          10274         -17873           1459           -876
   4104.00000000          -9574           5242          -3058          10720
   4108.00000000          -8370          -5706          -1552           3838
   4112.00000000         -14633           1908         -22720           -659
   4116.00000000          -5034          -9456         -13227           9472
   4120.00000000         -23728         -23714          13939          -5943
   4124.00000000           8986         -14133          -9488         -11965
   4128.00000000          -8600            834         -12429           1900
   4132.00000000         -13312          -2700            871         -26086
   4136.00000000          14813          14559         -14865          -4598
   4140.00000000          -7645          13371         -20726           5197
   4144.00000000          -3356          13832         -11681          -5605
   4148.00000000          16930           7384           5706         -26002
   4152.00000000          -9124         -11044         -10911          14954
   4156.00000000            760          10951           1596          13368
   4160.00000000         -21206           -667         -13034           1826
   4164.00000000          11141          -9369         -16619          14965
   4168.00000000          -4601           4923         -15764           9316
   4172.00000000            615          -5178           3070         -19123
   4176.00000000           3938           4210         -14510          18079
   4180.00000000           6545         -15352          -1863         -22394
   4184.00000000           7587         -10956          -6376         -14183
   4188.00000000         -15101          -4291           9691           3141
   4192.00000000          11351          11872           7453         -19081
   4196.00000000            450           3438          -6201         -13714
   4200.00000000          -4992          -4439         -14102           5359
   4204.00000000          -3008          -9187          -9651          17905
   4208.00000000           -565           5017          -8608           -183
   4212.00000000          -8462          11533            655         -11259
   4216.00000000           6623            947           2914           5953
   4220.00000000           9761            290          17454         -23393
   4224.00000000          -8374          -7219          10318          -1365
   4228.00000000            668          -1343          -7266          -8060
   4232.00000000         -13575           1083          -3938          -6936
   4236.00000000           7709          10364          -1598           2542
   4240.00000000          15265         -10412          -8449          -7810
   4244.00000000          14186          -5605           8718           -792
   4248.00000000           -621          -1664          -7629          -1312
   4252.00000000          -7223           5405          -1556          -8232
   4256.00000000         -10834           -521           9083         -10106
   4260.00000000          14044           8053          -1880          -2172
   4264.00000000         -15175           1664          -3997         -19507
   4268.00000000           7721          -3966          13654         -13369
   4272.00000000           -368          18640          -3235           2007
   4276.00000000          -8495         -13594          24001           5847
   4280.00000000           5018           9578           1107           3239
   4284.00000000          -6798          -2345           1299          -7223
   4288.00000000          -7595          15317             35          -9013
   4292.00000000          -5907          -9727           3483          -2522
   4296.00000000          -4475          -3551         -11158          -2726
   4300.00000000          -4107          -5089          -3544          -9262
   4304.00000000           3022           1719          -1367         -12725
   4308.00000000           9982          -3316          -2169           1059
   4312.00000000           2233          -2847             -6         -10506
   4316.00000000          14034           9604          18188           -972
   4320.00000000          -6569           1721         -12255          -2973
   4324.00000000          10181         -21991          -4094           7686
   4328.00000000         -10389          16234          -9529          -7161
   4332.00000000          -9462           1571           -537           4290
   4336.00000000          -4400          -7722           7363          -1119
   4340.00000000          -5025          -1984          -1371          10201
   4344.00000000          18298           4317          -3752         -13094
   4348.00000000          -1648          -1913         -14515          -4296
   4352.00000000         -10009          -5107           3462           3240
   4356.00000000         -13394          -4786           5977          -2637
   4360.00000000          11461          -6359          -5826              2
   4364.00000000         -10959          10984           6970           -467
   4368.00000000            282           7443           2696          -5087
   4372.00000000         -20938          -1373          -9855          -8498
   4376.00000000           2931          -8208         -15176           2357
   4380.00000000          -6191         -10734           9579           -370
   4384.00000000          -6078           9808           8813          -2359
   4388.00000000           4897           9426          -6424           3145
   4392.00000000         -20067            357          -2386          -3564
   4396.00000000           2538            292            732           9151
   4400.00000000           1231           -551           6823           4664
   4404.00000000          -7689         -15784         -14992          -7157
   4408.00000000           1376          -4743         -10163           4250
   4412.00000000          -1969           8514         -16716         -10789
   4416.00000000           3629           6035           5713           -474
   4420.00000000          -1749          10214         -13542           2642
   4424.00000000           6110         -10298         -19460          -9583
   4428.00000000          12527           1916           1754          -1322
   4432.00000000         -10639          -7289            479           -740
   4436.00000000         -10974          -4919           8133          -9711
   4440.00000000          -1619          -5155          -4128           7948
   4444.00000000          -8507           8109           1173           3978
   4448.00000000         -14233          -1326           3956           5490
   4452.00000000           6498          -7715           4485          -3541
   4456.00000000          11397          -9804           1433           -728
   4460.00000000           4155           4871            222           2871
   4464.00000000          -9338              3         -11200          -3695
   4468.00000000          11004          -5628           3000          -8781
   4472.00000000          -3435           7587          -9470           6047
   4476.00000000          -7486           5463           4374           1033
   4480.00000000           4691          -5629          -7477          -4761
   4484.00000000           4639           -941          -4842           -740
   4488.00000000          -7341           4785          -8434           7193
   4492.00000000            889          16788          -8758            477
   4496.00000000         -10478          -4450          11115          -5246
   4500.00000000           2548           3742          -1751          -4516
   4504.00000000           -780         -15284          -3368          -3395
   4508.00000000            113          -5172           5085           2754
   4512.00000000           2931          -4206           3446         -18148
   4516.00000000          -2266            532           3984           8434
   4520.00000000           2134          -8722           3001         -10144
   4524.00000000          -8455           4625          -1538           1982
   4528.00000000          -1157          -3037          -4751          -3250
   4532.00000000           6227          -2427            853         -10232
   4536.00000000           6142          -5315          -2160           2522
   4540.00000000           9995           3521           -886         -11297
   4544.00000000           1404          -2524          10163           -245
   4548.00000000           5531          -7257          -2438           1514
   4552.00000000          -3240          -6660          -3203          -5541
   4556.00000000          -2933          -1508           1341          11172
   4560.00000000          -2336          -6557           -298           1782
   4564.00000000          -4066           2886          -5860          -4848
   4568.00000000          -8239           1900            153          -5163
   4572.00000000          -3781          -7112           3268           -155
   4576.00000000          12889            587           5215          -7230
   4580.00000000          -9557          -4130           6782            746
   4584.00000000            620          -2245         -10172           -823
   4588.00000000         -10387           -739           1243           4557
   4592.00000000           4900          -2884          -4803           -772
   4596.00000000          -3480           5377           2363          -4840
   4600.00000000           -733           4854         -11934         -17739
   4604.00000000          -4988          -4551           3310          17832
   4608.00000000          -4994          -4120          14109           -195
   4612.00000000          11319          -6311           -874          -7394
   4616.00000000          -3712          -5770           -809           -361
   4620.00000000            406          -5490           2238          -3408
   4624.00000000           2725          -9874          -1970          -2650
   4628.00000000          -4144           7359            609          -1583
   4632.00000000          -8062           2722            114          -6285
   4636.00000000          -6894          -3063           3747            939
   4640.00000000             21          -5248           -430          -1601
   4644.00000000           4034          -4904           2495           3535
   4648.00000000           5400            954          -3090           3262
   4652.00000000          -2386          -2238            799           4888
   4656.00000000           4429            -12          -8630            714
   4660.00000000           8620          -4059           7655          -5255
   4664.00000000          -3328         -10695          13867          10128
   4668.00000000          -2693          -7382           4782          -4322
   4672.00000000          -4663           7070            397           4781
   4676.00000000          -7278          -3985           -348            111
   4680.00000000           1279           1464          -5870          -8236
   4684.00000000           6326           1552          -3973           1393
   4688.00000000           3539           -853           1942          -1258
   4692.00000000          -3293           3393         -11239          -3554
   4696.00000000           1739           1685           3670          -3803
   4700.00000000           8585           5847            737           1228
   4704.00000000           6934          12277          -4473          -7666
   4708.00000000          -2643           3581          -1218           2816
   4712.00000000           2067          -7092          -5032          -1852
   4716.00000000          -3008          -2643          -5141          -2520
   4720.00000000          -4405          -8306           4248          -2784
   4724.00000000          -8137           7433           1617           6497
   4728.00000000           -273          -6489          -4412          -5666
   4732.00000000          -2047            699          -7350          -1562
   4736.00000000           -996           3363          -3291          -1122
   4740.00000000          -4075          -6718          -4401          -1230
   4744.00000000           1869          -9725         -10035          -3170
   4748.00000000           2359           5620          -4830          -1027
   4752.00000000          -1683          -3804          -9817         -11247
   4756.00000000          -6976          -3018           -641           -250
   4760.00000000           7677          -2804           2655          -3580
   4764.00000000          -2745          -2633           2265           3846
   4768.00000000          -3715          -9449            136           -587
   4772.00000000           -761          -1225            592           2456
   4776.00000000          -3706          -3602          -4464           4130
   4780.00000000          -6131           2551          -2810           3102
   4784.00000000          -5081          -9397          -4860           8705
   4788.00000000          -2616          -7889           5453          -4529
   4792.00000000          -6698          -4454          -4168           1273
   4796.00000000          -6019           1377           -493           1945
   4800.00000000           6875           1263          -7646          -3205
   4804.00000000           5597          -5585            135           6496
   4808.00000000          -3641           2419           4792           4635
   4812.00000000          -1360           -892           2386          -3713
   4816.00000000          -4838          -2764           -785          -2007
   4820.00000000           1452           -731          -1454           1085
   4824.00000000          -8355          -3214           1254           6970
   4828.00000000             63          -2462           1215          -3710
   4832.00000000           5888          14463          -2309            664
   4836.00000000           -647           1033            653          -3255
   4840.00000000           1997           5261          -3097           5146
   4844.00000000          -1492          -6999           4346          -6920
   4848.00000000          -5023          -4292            873           4642
   4852.00000000            389          -3970           7164          -4883
   4856.00000000          -3594           -849           1509           3049
   4860.00000000          -3105          -4040          -2549           1895
   4864.00000000            -95           1832          -2278           4348
   4868.00000000          -3781           1065          -4473           6389
   4872.00000000           2921          -7084           7750          -2334
   4876.00000000          -1235          -3384           2142          -7747
   4880.00000000           5010           2139            135           1897
   4884.00000000            102          -4427          -4667           2870
   4888.00000000           3657          -5465           -981          -1731
   4892.00000000           1903           4034           3488          -2321
   4896.00000000          -6079          -4638          -5855            802
   4900.00000000           4090           2200          -2675           1060
   4904.00000000           -153           2849           2389              4
   4908.00000000           7660          -4575          -6267          -4017
   4912.00000000          -5822           -973          -1352          -2802
   4916.00000000          -2546           1636           -292          -1839
   4920.00000000           2879           -437          -2522             65
   4924.00000000          -1095          -5699          -1167          -3664
   4928.00000000          -2087           -496          -1558            947
   4932.00000000          -2208           3689          -3475          -3515
   4936.00000000          -3587          -4782          -3324          -2141
   4940.00000000           -482           -453           -809          -6660
   4944.00000000           8455            -42           4407          -3249
   4948.00000000            171            641            -92             79
   4952.00000000           -545           5391           -294          -6352
   4956.00000000          -5052             60          -1980            520
   4960.00000000           1778           -595          -2517          -4841
   4964.00000000            574           1255          -4529          -3638
   4968.00000000           6018            899            -64           9303
   4972.00000000          -2210          -6593          -8483            407
   4976.00000000           -864          -1957            618          -1711
   4980.00000000           3819          -5326          -1872          -1555
   4984.00000000           1815            346          -2409           1857
   4988.00000000            191          -2421           2670           4226
   4992.00000000            698          -5321           2309           2506
   4996.00000000           4770           3424          -5854           2569
   5000.00000000          -3726          -4739           -260           2200
   5004.00000000          -3678           -730            920           2157
   5008.00000000           1225           -865           3981          -2319
   5012.00000000          -3696            319          -3100            -42
   5016.00000000           2936          -4128            219            854
   5020.00000000          -2282           -529          -7266           8797
   5024.00000000           2733          -3099           5519            762
   5028.00000000            243         -13947          -3965           2592
   5032.00000000            415            928           -571          -4677
   5036.00000000           -174           3441           5153          -3002
   5040.00000000          -2394          -1831           3986            620
   5044.00000000          -5647          -2435          -1843          -2631
   5048.00000000           3914          -1641            740          -3585
   5052.00000000             60          -1763          -5913          -4441
   5056.00000000           6313          -1071           2996           -380
   5060.00000000          -1832          -2386          -3438          -6253
   5064.00000000           3786            -23           2423          -3036
   5068.00000000          -2797           3052            336           -945
   5072.00000000          -2361           2386           2061          -2453
   5076.00000000          -3208           6806          -1700          -4061
   5080.00000000          -2453          -5226           1000          -1182
   5084.00000000          -4370          -1289          -4025           5219
   5088.00000000           1306           1160          -5158          -1583
   5092.00000000           4204          -1154          -5523            692
   5096.00000000          -2568          -2191          -1387          -2231
   5100.00000000            795          -1150           -735            158
   5104.00000000          -2718          -1042           -241           2640
   5108.00000000          -1668          -5636           -896             -3
   5112.00000000            577           -255          -4711           1868
   5116.00000000           2229          -1934           1015          -2603
   5120.00000000          -3049          -4137           2894           2875
   5124.00000000           2051          -6909          -5581          -3361
   5128.00000000           6053           -896          -1642          -2291
   5132.00000000          -3666          -1780           -170          -1221
   5136.00000000           2988            628          -4408          -1317
   5140.00000000           -960          -3896            412          -2184
   5144.00000000           4385           2613            178           1095
   5148.00000000           2119          -1643          -3837           -629
   5152.00000000          -3355           4658          -1274           2723
   5156.00000000           -378          -2298          -1668            446
   5160.00000000           1414          -3463          -3197          -3522
   5164.00000000           2447           3120          -4499          -3910
   5168.00000000           1159           1629          -2457          -1858
   5172.00000000           2010           3727          -3311          -2806
   5176.00000000           -942          -3513            558            209
   5180.00000000           2122            -13           1801          -1791
   5184.00000000          -8243            255           1893           3869
   5188.00000000           3953          -1290           3988          -2697
   5192.00000000          -1777           1558          -1034           1965
   5196.00000000          -3996           1323           3588          -3928
   5200.00000000          -2243          -5107          -4338          -1947
   5204.00000000             17           -985            118           2771
   5208.00000000            278           4233          -4888           1473
   5212.00000000            137            253          -1078          -4286
   5216.00000000           5212          -2310            777           -108
   5220.00000000           1977            790          -1394           2243
   5224.00000000           -660           2402            890           5305
   5228.00000000            987           1343           4598           -647
   5232.00000000           2215          -2386           -167           -903
   5236.00000000           2899           -574            658            622
   5240.00000000          -3985           -875           2835          -2963
   5244.00000000           -325           -340           2241          -1282
   5248.00000000           1327          -1794           3098           1585
   5252.00000000           1061            841           3535           2295
   5256.00000000           -841          -1478            -39          -1711
   5260.00000000          -3305            195          -1633           -599
   5264.00000000          -1203           -549          -1606          -2369
   5268.00000000            959          -1335           -893          -2574
   5272.00000000          -2184          -4211           -985          -1326
   5276.00000000           2513           2886          -5666           1102
   5280.00000000             85          -1874          -1456           -521
   5284.00000000           2925          -2754           4657            -27
   5288.00000000           2625           -799           2702           3851
   5292.00000000          -2229           -269          -1449          -1096
   5296.00000000          -2162          -8465           1776           1401
   5300.00000000           -908            786          -1179           3565
   5304.00000000            244           -217           2201           -978
   5308.00000000            348           -530           -496           1659
   5312.00000000           -462           2583          -1511          -3982
   5316.00000000           1085          -1110          -1343            408
   5320.00000000           1943           -716           -774           1729
   5324.00000000            520             20           -516          -2064
   5328.00000000           -578            103            596          -1931
   5332.00000000           2204            334           3274          -1328
   5336.00000000           1595           2584          -3011          -1659
   5340.00000000           -349           -619            463          -3022
   5344.00000000            240          -4240           1533          -1593
   5348.00000000            104          -2964           3389           -460
   5352.00000000           3839           2723           2020           1251
   5356.00000000          -2501          -4454           -432            494
   5360.00000000           2074            272          -1332            588
   5364.00000000           2212           1185           1455          -2072
   5368.00000000            274           1005          -1358           -865
   5372.00000000          -1267            937            549           -657
   5376.00000000          -4092            283             69          -1092
   5380.00000000           1308            892           1303           -997
   5384.00000000            605            532           3993          -1222
   5388.00000000           1968            829          -2613            310
   5392.00000000            198           -990          -3511          -2981
   5396.00000000           -877          -1498          -1715           1501
   5400.00000000          -4369           1594          -2688           1089
   5404.00000000          -1050            221           3067           2372
   5408.00000000            -61           1353           2372           -342
   5412.00000000           1753           -259           2746            240
   5416.00000000           -220            770            700            769
   5420.00000000           -447            480           1573           -664
   5424.00000000           3046           -179           -176           1555
   5428.00000000            751           -611           3373          -3767
   5432.00000000           -812           -983           3518          -1757
   5436.00000000          -1031           5441            483          -2882
   5440.00000000          -2472          -1645          -5077           -339
   5444.00000000            317           -499          -2800           -620
   5448.00000000            642           -105            541           2470
   5452.00000000          -2344            -94           -785           -655
   5456.00000000           -287          -2251          -1241          -3545
   5460.00000000             95          -1911          -2434           -149
   5464.00000000           -511            942          -4713            189
   5468.00000000          -2077           -124           -704           2511
   5472.00000000           1655           3208          -4615           3492
   5476.00000000            632           2282            567          -3448
   5480.00000000          -1140          -1363           2192            197
   5484.00000000          -1678           -398           4680           2818
   5488.00000000           -888           -533           3021           4643
   5492.00000000           1365            400          -1374           1128
   5496.00000000          -1729           2074           -851           1394
   5500.00000000           -750           -724           -306            330
   5504.00000000           2157            808           -597           -985
   5508.00000000           -331            800           4556           3304
   5512.00000000            421          -2651             88          -2428
   5516.00000000           2381          -3133          -1916          -3220
   5520.00000000          -2224           1240           -325            608
   5524.00000000          -1333          -2395            810           1063
   5528.00000000           2082          -1133           1126          -1305
   5532.00000000           -696           -292           2879            125
   5536.00000000            121            486           2966          -1866
   5540.00000000           1400           1714              4            649
   5544.00000000          -1179              5          -2672           -348
   5548.00000000          -1094            469          -2937            998
   5552.00000000          -1787           2009             54          -2158
   5556.00000000           1393          -3521            521           1546
   5560.00000000           3124           1052            433          -1946
   5564.00000000            253           -615           1616           2629
   5568.00000000           1343           -643           -385          -1152
   5572.00000000            185           1012          -2363          -1149
   5576.00000000          -2319           -823           2906            455
   5580.00000000          -1795           1429          -1547           3794
   5584.00000000            409          -1566          -2004          -1038
   5588.00000000            117          -2031            170           1608
   5592.00000000          -2650          -1142            894          -1430
   5596.00000000          -1292           1916           -498          -1526
   5600.00000000           -190          -2246            472            781
   5604.00000000           1082           2148          -1192          -1834
   5608.00000000            729            187           -868           1290
   5612.00000000          -1244          -2009             75           -731
   5616.00000000          -2374            651            796            920
   5620.00000000            -58           1275           -180            721
   5624.00000000           -531           -830          -3475           2627
   5628.00000000           -201           1808          -1244          -1666
   5632.00000000           -766           -721           3674          -4235
   5636.00000000           1648           -238           2826           -317
   5640.00000000            -39           2199          -3082            911
   5644.00000000            390           -350           -909          -2153
   5648.00000000           -358          -2186           -492           -409
   5652.00000000          -1111           1348             53            856
   5656.00000000             42          -2807           1033            413
   5660.00000000          -2289            743           1822           -576
   5664.00000000           2274           -865          -1416            788
   5668.00000000            659          -1315          -2197           -443
   5672.00000000           -502            390           1456            196
   5676.00000000           -774          -2877          -3984          -1919
   5680.00000000           1371            578           -716           1766
   5684.00000000          -1577             40           1605          -1493
   5688.00000000           -829          -1271           1786           -492
   5692.00000000            122          -1590            690          -2024
   5696.00000000            213             93           -388          -1364
   5700.00000000            933           -560            898            726
   5704.00000000           1455           -582            893           -477
   5708.00000000          -2428           -526           3136          -1412
   5712.00000000            337           1559            852            505
   5716.00000000            146           -611            270          -1099
   5720.00000000            457            889          -1707            106
   5724.00000000            187            498            -89            697
   5728.00000000           -849            783            221           -623
   5732.00000000           2388             46           3351          -1289
   5736.00000000           -657           2699           2842           -357
   5740.00000000          -2281           -241           1116          -2834
   5744.00000000            318           1860           2489           1775
   5748.00000000             63           -397           2365           -878
   5752.00000000           2211           1747           -133           2659
   5756.00000000          -2088            810           -228            539
   5760.00000000           1917           1485            265           -247
   5764.00000000           1594          -1711           1818            135
   5768.00000000           -322           -755           -204           1535
   5772.00000000           1417             84           3370           1664
   5776.00000000          -1872          -1710           -858           1471
   5780.00000000            259           1966            194           -483
   5784.00000000           -219           1703           -685            918
   5788.00000000            522             -5           1153          -1639
   5792.00000000           1620          -1905           1274           1404
   5796.00000000          -1677          -1613           1238            -29
   5800.00000000           1965          -1642            962           1348
   5804.00000000           2069            959           1005          -1242
   5808.00000000           1013            324          -1670          -2048
   5812.00000000            814          -1802          -1463            534
   5816.00000000           -185            668           1088          -1600
   5820.00000000           -726           2339           -203           1749
   5824.00000000            167            585           2397          -1120
   5828.00000000          -1205           1123            291            131
   5832.00000000            450           2362           1471            287
   5836.00000000           -763          -1109            671            245
   5840.00000000            893            207          -3375           1304
   5844.00000000           1823           -158           -702           -559
   5848.00000000          -1315            168           -469          -1112
   5852.00000000          -2214          -2543             98           1803
   5856.00000000             17           -367             25            598
   5860.00000000           -933            282             73           -111
   5864.00000000            568            350           -487            626
   5868.00000000           -816           1591            545            117
   5872.00000000            273           -305           -643             47
   5876.00000000            850           -303            784            466
   5880.00000000            803           -223           -704          -1875
   5884.00000000            797            159           1662           2308
   5888.00000000           1474           -137            752          -1544
   5892.00000000           -248            471           -786           -270
   5896.00000000             64            770           -250             74
   5900.00000000           -312           -935            542           1295
   5904.00000000            -86          -1498           2973          -2369
   5908.00000000             95            308           -936          -1463
   5912.00000000          -1199           -880           -948           -480
   5916.00000000           -853           1506           -642           -218
   5920.00000000          -2081            536           1127            806
   5924.00000000           1211           1583           -488           -178
   5928.00000000          -1687           1027          -1226           -166
   5932.00000000           -905            880            162           1469
   5936.00000000            237           1953            -95            326
   5940.00000000            909           -201            509           -179
   5944.00000000            278            910           -563            785
   5948.00000000            387           -975          -1150           1397
   5952.00000000           2160            186           2311            -85
   5956.00000000           -682            928            374            123
   5960.00000000           -639           -800           1004           -118
   5964.00000000           1606           1444            533           -182
   5968.00000000          -1361            587            -21           1676
   5972.00000000            293           -168           -127           -754
   5976.00000000           -531           -924            334            -88
   5980.00000000            160           -304           -593           -844
   5984.00000000           2034             98           2524          -1491
   5988.00000000            537           -362           -614            474
   5992.00000000           1679            -64          -1373           -155
   5996.00000000            652            255           -128          -1717
   6000.00000000           -752           1797           -573          -1003
   6004.00000000            649            177           -254          -1477
   6008.00000000          -1252           1131           -258           1348
   6012.00000000           -149            823            665           -672
   6016.00000000             29            496          -1122           -399
   6020.00000000           1214           -877            881          -1287
   6024.00000000           -294            829            -51            514
   6028.00000000           -621           -729          -1039           -299
   6032.00000000           2007           -125          -1082          -1062
   6036.00000000            131          -1497           -892          -1209
   6040.00000000          -1326            360           -264           -136
   6044.00000000            451           -886          -1678            599
   6048.00000000           1014           -173           -559            279
   6052.00000000           -587           1309            579            234
   6056.00000000           1348            561            -62           -338
   6060.00000000             96           -627            355           -906
   6064.00000000            918           -882            488           -440
   6068.00000000           -331           -925            614           -555
   6072.00000000            817            327            282           -190
   6076.00000000            854            505           2183           1225
   6080.00000000            265           1130            350            683
   6084.00000000           1099           1179           -415            710
   6088.00000000           -408            517            661            478
   6092.00000000            471           1144            232            657
   6096.00000000            -17           -197           1410              6
   6100.00000000            441           -126           -620            574
   6104.00000000           -349           1312            448            558
   6108.00000000            947            267            963           -397
   6112.00000000           1030           -280           -163            938
   6116.00000000          -1078           1979           -529           1162
   6120.00000000           1585           -878          -1126            576
   6124.00000000            961             42           -594           -657
   6128.00000000            247          -1014           1250            297
   6132.00000000            939           -660           -308           -949
   6136.00000000            663           -722            887            660
   6140.00000000           -313          -1279            456           -101
   6144.00000000           2049           -193          -1597           1213
   6148.00000000            742           -672            -48           -724
   6152.00000000            767            130          -1185           -473
   6156.00000000           -461           2042           -204           -420
   6160.00000000            249           -102            -99           1211
   6164.00000000            583            882             76          -1911
   6168.00000000            594           -933           -267          -1284
   6172.00000000            636           -496            928           1094
   6176.00000000            -16           -207           -440           -132
   6180.00000000           -211            -42            721           1439
   6184.00000000           -331           1061           -502            590
   6188.00000000            353           -282            358           -539
   6192.00000000            766            233           1124            174
   6196.00000000           -149             87           -155            754
   6200.00000000           -926          -1307          -1187            475
   6204.00000000           -629           -905            598           1097
   6208.00000000            404            337           -524            561
   6212.00000000            546            148           1047            814
   6216.00000000           -696            562            116            215
   6220.00000000           1048           -388            978            229
   6224.00000000            112           -992            318            217
   6228.00000000            791           -578            368           -611
   6232.00000000           -343            793            504            131
   6236.00000000            237           1432           1286          -1212
   6240.00000000           -466            467            118             63
   6244.00000000            356            548          -1903            238
   6248.00000000           -155           1169           1156          -1143
   6252.00000000           -581          -1251           -636            906
   6256.00000000            220           -944           -389            -78
   6260.00000000            355           -873            333           1511
   6264.00000000            238            296            403            629
   6268.00000000           -333            201            577            -41
   6272.00000000            992           -220           1068            702
   6276.00000000           1313            229           -585             39
   6280.00000000             66           -831             -9            316
   6284.00000000            609            -98           -818           -194
   6288.00000000            170            111           -479            822
   6292.00000000           1085            775          -1087             66
   6296.00000000            368            735           -113             88
   6300.00000000           1155          -1014            962           -115
   6304.00000000            946            231            638            358
   6308.00000000            722            127            122           1382
   6312.00000000           -299            -71           -533            543
   6316.00000000            504           -242            -10            349
   6320.00000000            625           1086            -90           -228
   6324.00000000            156            158           -473             83
   6328.00000000            528             59           -490           -227
   6332.00000000           -685            745           -778           -548
   6336.00000000            109           -527            -99            -48
   6340.00000000            139             24            313           -130
   6344.00000000            123           -884          -1555           -137
   6348.00000000            742            613           -111            241
   6352.00000000            926            590           -382          -1046
   6356.00000000             84            353            437             45
   6360.00000000            613            292           -995           -779
   6364.00000000           -497           -470           -582          -1151
   6368.00000000           -290             63            150            -32
   6372.00000000            630           -378            -62            287
   6376.00000000            815           -104           -137            980
   6380.00000000            309            792            245           -124
   6384.00000000           -408           -307           1096             54
   6388.00000000           -574             74            383           -289
   6392.00000000            -62             43            447           -348
   6396.00000000            268           -190            -31            191
   6400.00000000            296           -476            938           1024
   6404.00000000            141           -284            448           -438
   6408.00000000           -658           -405          -1064            537
   6412.00000000            -64            174          -1169            338
   6416.00000000           -129             94           -494            -63
   6420.00000000            220            241           -425            640
   6424.00000000           -338             75           -113           1083
   6428.00000000           -240            710           -327             -3
   6432.00000000            129            395           -102            145
   6436.00000000           -106            635            141           -387
   6440.00000000            907           -129            378           -258
   6444.00000000            583           -478             21           -209
   6448.00000000           -360            825            963           -834
   6452.00000000            767           -369            306           -519
   6456.00000000            137           -794           -185            491
   6460.00000000            111           -133            819           -266
   6464.00000000           -539            285            182           -750
   6468.00000000            -71            196            -17            105
   6472.00000000           -449            214            541             16
   6476.00000000           -470           -122            328            796
   6480.00000000            977             12             73           -541
   6484.00000000            135             82           -102           -299
   6488.00000000           -112           -581           -376           -458
   6492.00000000            -51            194           -100            586
   6496.00000000            566            223            535            -58
   6500.00000000             25           -244             12           -182
   6504.00000000            485            753           1149            613
   6508.00000000             40           -254           -324            511
   6512.00000000          -1592            548            253           -609
   6516.00000000            484             16           -846           -129
   6520.00000000           -107           -884           -496            -76
   6524.00000000           -123            -46            747            482
   6528.00000000           -502            386            320            258
   6532.00000000            510             71           -353             49
   6536.00000000            341          -1113             70            453
   6540.00000000           -239            515           -183           -202
   6544.00000000            477            526            -58            702
   6548.00000000            210           -175           -595            -73
   6552.00000000            -82           -153            315           -334
   6556.00000000            117           -394           -356           -212
   6560.00000000            342           -231            236            -71
   6564.00000000           -428            464           -329          -1118
   6568.00000000           -925             18            390            339
   6572.00000000            320            401            268            -92
   6576.00000000            336            265           -209           -592
   6580.00000000            234           -515            330             47
   6584.00000000            901            269           -235           -369
   6588.00000000            135              7            187            -19
   6592.00000000            405            385            -76             44
   6596.00000000           -214            402            664            635
   6600.00000000            321            568            629           -215
   6604.00000000            647           -513            176           -397
   6608.00000000            -95            261           -437            352
   6612.00000000           -467            181            552           -735
   6616.00000000           -508           -543            -51            -59
   6620.00000000            497             94            269           -321
   6624.00000000           -248            -68            694            -70
   6628.00000000            105           -603           -570            -48
   6632.00000000            138            432           -190            356
   6636.00000000             53            309            -24           -155
   6640.00000000            283           -119           -504           -306
   6644.00000000            155            -33            365           -219
   6648.00000000            -27            -97           -499            137
   6652.00000000            162             87           -195            543
   6656.00000000             -4           -355            592            328
   6660.00000000           -134            374           -173           -547
   6664.00000000           -446            377            -86            -95
   6668.00000000            269            182            772            512
   6672.00000000           -376            200            931           -123
   6676.00000000            -19           -204            502            242
   6680.00000000            475           -186            279             53
   6684.00000000            181            -58            138             21
   6688.00000000           -279            238            -69            271
   6692.00000000             57            353           -569            541
   6696.00000000            825             25            452            131
   6700.00000000           -130            -14           -566           -259
   6704.00000000            -35           -763             21            147
   6708.00000000            669            348            243            750
   6712.00000000            280            348            360            733
   6716.00000000              1            -29            463           -172
   6720.00000000            314            225            340           -292
   6724.00000000           -314            568              3            463
   6728.00000000           -325            883           -534           -157
   6732.00000000            322            262           -345            165
   6736.00000000           -320           -237             43            133
   6740.00000000            132           -473            -21            700
   6744.00000000           -191           -834           -334           -344
   6748.00000000           -276             19             33           -434
   6752.00000000            772            -62           -441            710
   6756.00000000           -497           -428           -337           -273
   6760.00000000            627           -445            304            -18
   6764.00000000           -280           -335           -217            214
   6768.00000000            276            233            325            -81
   6772.00000000           -265            356           -104           -137
   6776.00000000            238            227            262            326
   6780.00000000            -79            260           -412            200
   6784.00000000           -355            144            330           -151
   6788.00000000           -247            207            588            185
   6792.00000000           -190             28           -169           -364
   6796.00000000            136           -190           -271            337
   6800.00000000           -114           -373           -292            -45
   6804.00000000            -51            521            682            381
   6808.00000000           -439            -39            443           -221
   6812.00000000            491            239            330            603
   6816.00000000             91            233             43            439
   6820.00000000            339            337            -13           -633
   6824.00000000           -493            170            534            208
   6828.00000000           -521            513            349           -256
   6832.00000000            196           -737           -179           -254
   6836.00000000             19           -156           -243             28
   6840.00000000            -80            -81            441             -8
   6844.00000000           -531            -60           -290            174
   6848.00000000           -303            257            164           -438
   6852.00000000            107            321            248            -88
   6856.00000000            -70            645           -308            -36
   6860.00000000           -176           -403           -287            569
   6864.00000000           -164            477            207             89
   6868.00000000            108             33           -370            -67
   6872.00000000             12           -194            332            261
   6876.00000000           -286            227           -334            113
   6880.00000000            -42           -462            -28            -79
   6884.00000000           -706             71            303            129
   6888.00000000           -359            317            -26           -292
   6892.00000000            -47             -8            158            318
   6896.00000000            263            181           -342             10
   6900.00000000           -279            -11            175            260
   6904.00000000            304            234           -177           -285
   6908.00000000             54            176            138            193
   6912.00000000           -390           -556            117             21
   6916.00000000            484             79             43           -501
   6920.00000000           -172            131            108            185
   6924.00000000            -44            144           -238           -286
   6928.00000000           -114            173            354            389
   6932.00000000            169            457           -284           -521
   6936.00000000            243            108           -283            -73
   6940.00000000           -287            -28             66            -34
   6944.00000000            -86           -442            239            667
   6948.00000000           -183            327            275            111
   6952.00000000            -94            272           -207           -126
   6956.00000000           -134            -24              7            181
   6960.00000000            178             14            165            311
   6964.00000000            248           -105           -290            141
   6968.00000000           -170           -300            105            -58
   6972.00000000            464            -30           -194            534
   6976.00000000            -44            173            605           -353
   6980.00000000           -165           -138            613            -32
   6984.00000000            514            -13           -420            -12
   6988.00000000            -93            223           -128            -41
   6992.00000000            -96           -193            293            166
   6996.00000000            129            -12           -159           -387
   7000.00000000            103           -524            195            337
   7004.00000000            276            251             -7           -217
   7008.00000000             26            115           -239            -94
   7012.00000000           -170           -389           -128           -178
   7016.00000000           -138            135            132           -222
   7020.00000000            341            265            346            400
   7024.00000000           -188           -148           -144            225
   7028.00000000            -53           -413            149             68
   7032.00000000            249           -355           -489             51
   7036.00000000           -223            129            188            -78
   7040.00000000             22            192           -505           -100
   7044.00000000           -199            -41            180            132
   7048.00000000           -264            -53            -96           -148
   7052.00000000           -204            -47             42           -192
   7056.00000000             47           -147           -480            315
   7060.00000000           -259           -277             73           -226
   7064.00000000            205           -137           -221             78
   7068.00000000            188           -248             36            -34
   7072.00000000            102             26             34            210
   7076.00000000            229            270           -435            204
   7080.00000000           -386            137             74             42
   7084.00000000            149           -193           -172            655
   7088.00000000            276            476            220           -173
   7092.00000000           -382             -5           -337            -12
   7096.00000000            -94           -195           -158            -93
   7100.00000000            266           -140            -91            169
   7104.00000000             62            381            155           -277
   7108.00000000             -3           -103           -140            -31
   7112.00000000           -292            184           -161           -163
   7116.00000000           -271             10            161           -115
   7120.00000000           -187           -116             10           -309
   7124.00000000           -226            -72           -254           -181
   7128.00000000           -113            135           -157           -152
   7132.00000000            -27           -149            -30           -366
   7136.00000000            -20           -120           -103             25
   7140.00000000             77           -281            386             20
   7144.00000000            124           -102            119           -299
   7148.00000000           -406           -100            -73           -311
   7152.00000000            123            -33           -344              6
   7156.00000000            234            -10           -124            281
   7160.00000000             72           -143            -16           -138
   7164.00000000            102             33            -17            215
   7168.00000000             38            -49            -37             21
   7172.00000000            -11            -47           -124           -135
   7176.00000000            144           -340             90           -151
   7180.00000000           -355           -310             65             73
   7184.00000000            -69            -49            174           -155
   7188.00000000           -388            -37            118             33
   7192.00000000            -25             96            -74           -314
   7196.00000000            -75            188           -119            202
   7200.00000000           -198           -136              8            -99
   7204.00000000           -171            -13           -294            -18
   7208.00000000             72            127             15            -92
   7212.00000000             45           -193           -172              4
   7216.00000000            123           -113            350           -143
   7220.00000000            -57              2            222            462
   7224.00000000           -288            256              1             40
   7228.00000000            -19           -193            -17            115
   7232.00000000            -26            238            -91             39
   7236.00000000            264           -142            208            154
   7240.00000000             31           -103             10            -70
   7244.00000000            218             57            -57            217
   7248.00000000            176           -196             -3            167
   7252.00000000             -3           -259           -351           -238
   7256.00000000            342           -127            -16           -234
   7260.00000000           -445            -44           -104           -119
   7264.00000000            -34             43           -120            193
   7268.00000000           -289            128            342            144
   7272.00000000           -127             77            126           -240
   7276.00000000            -63            274            222            165
   7280.00000000             83           -210           -141            152
   7284.00000000             66           -214           -393            -44
   7288.00000000            228             51            194           -128
   7292.00000000             25           -272           -124             64
   7296.00000000             46            -41            -52           -255
   7300.00000000            231            -40             58             37
   7304.00000000             51            286             32           -259
   7308.00000000            159           -212            -93           -444
   7312.00000000            -70            168            -91            198
   7316.00000000             53             14            -10            140
   7320.00000000            -82            -52             56           -106
   7324.00000000             77            204            345            -25
   7328.00000000            -72            186            -55           -138
   7332.00000000             32           -115            -33             52
   7336.00000000             70             95            -48            -66
   7340.00000000             35            112           -237           -307
   7344.00000000             48            -58            -24             56
   7348.00000000           -201            -26            -36           -125
   7352.00000000            -63            -19            131            275
   7356.00000000             -3            -98           -205            -60
   7360.00000000             75            -57            -30            100
   7364.00000000            151            -87            -36            -21
   7368.00000000             82            -86            209           -169
   7372.00000000             76            125            172             66
   7376.00000000           -160           -122            300           -199
   7380.00000000            156            207            -35           -173
   7384.00000000             -5           -256             91            -33
   7388.00000000            -71             55            139           -101
   7392.00000000           -303           -108             62            113
   7396.00000000            -82            -27            -45           -108
   7400.00000000           -151            -26             18            -47
   7404.00000000           -362             -6            121             25
   7408.00000000            -79             61            405            147
   7412.00000000            227            305            150             56
   7416.00000000           -119           -105             53             51
   7420.00000000            -37            -69             38            -41
   7424.00000000            370             -6            194             86
   7428.00000000           -240             99           -169            114
   7432.00000000           -277             -3           -153           -101
   7436.00000000           -243             60              9           -150
   7440.00000000           -132            207           -212             88
   7444.00000000            -22            -50           -164           -155
   7448.00000000            225            155             90             -4
   7452.00000000           -243             13             78            -51
   7456.00000000           -138           -148            -33            -84
   7460.00000000            -32            -53            -98             90
   7464.00000000            394           -325             -2             82
   7468.00000000            201             79            -77           -131
   7472.00000000            -86            118            151            -56
   7476.00000000            -63           -223             41            -24
   7480.00000000            -88             77           -135           -277
   7484.00000000           -115           -136           -109            -61
   7488.00000000            -19           -107           -113            157
   7492.00000000            -27             96           -328            229
   7496.00000000            101            -90           -102           -172
   7500.00000000           -307            -64           -187             93
   7504.00000000            -14            -38             58           -132
   7508.00000000            -43           -195            -24           -136
   7512.00000000            -89             88            100            -38
   7516.00000000           -154              8           -100             53
   7520.00000000           -131           -123            -34             30
   7524.00000000             -1           -126              0           -226
   7528.00000000            -56            -61           -224           -206
   7532.00000000              2            148           -112            -96
   7536.00000000           -110            -99             80             55
   7540.00000000            -65            -29             79             70
   7544.00000000             -8             -7            -85             81
   7548.00000000            117            -38            115            114
   7552.00000000            -31            -40           -161              6
   7556.00000000           -191            -85             90            -86
   7560.00000000            -48              4           -193             26
   7564.00000000           -271             40            128           -207
   7568.00000000            -75            -80             63            -27
   7572.00000000              6             97            -51           -164
   7576.00000000           -125             67            -32             68
   7580.00000000             66            -84            -67            -84
   7584.00000000           -102            164            172             11
   7588.00000000             75             23           -129            -43
   7592.00000000            126            -88             26            111
   7596.00000000            -21           -130            -23           -130
   7600.00000000            137           -114            103             -1
   7604.00000000           -122           -108             42            -87
   7608.00000000            -49            -66           -134            -42
   7612.00000000            -30             84             13           -110
   7616.00000000            -88            -24             -0              3
   7620.00000000             31            121            -58            -10
   7624.00000000             -7            -14              5            -78
   7628.00000000           -171             66           -144            -98
   7632.00000000            -22             29             91             24
   7636.00000000            -44            -23           -155            -63
   7640.00000000             -0             14             58             34
   7644.00000000            -50              6            -58            -46
   7648.00000000            -72            183             92            121
   7652.00000000            -18            -70           -109            -52
   7656.00000000             42           -252            -15           -132
   7660.00000000            -95           -257             44             30
   7664.00000000             78             25            -11           -146
   7668.00000000              6            -64             31             -8
   7672.00000000           -109            -75           -104            158
   7676.00000000             66            -11            -29             48
   7680.00000000            -76            -65            162            -70
   7684.00000000            -77           -130             33             25
   7688.00000000             76             80            146             77
   7692.00000000            -79             -5            -82            -78
   7696.00000000           -131            -11            138           -132
   7700.00000000            -25             -3            -23            -53
   7704.00000000            -91            -88           -135           -155
   7708.00000000           -147             33            102            -51
   7712.00000000            -20             84             -9           -185
   7716.00000000            -90             25            -31           -200
   7720.00000000             -5            -29             43            -16
   7724.00000000            106           -159             24             -2
   7728.00000000            -36             13             -5             93
   7732.00000000            -49             26             64            -72
   7736.00000000            -84            -21            114            -48
   7740.00000000           -230            134             12             20
   7744.00000000           -133           -187            -48           -199
   7748.00000000            -14            -82           -135            -54
   7752.00000000            178             43             75             65
   7756.00000000            -57             25            -40             17
   7760.00000000            -65             92            -21           -120
   7764.00000000            -73             -2           -100           -113
   7768.00000000            -19            -46             83           -137
   7772.00000000            -74             15             95             52
   7776.00000000              6            -86           -187            -10
   7780.00000000            -61            104             -9           -111
   7784.00000000             58            -30           -132             84
   7788.00000000            -16            122             37           -174
   7792.00000000           -256             24            186             34
   7796.00000000            168            -17            -62             56
   7800.00000000             35            -66             35             36
   7804.00000000            -33            -78             17            -11
   7808.00000000           -148            -15             20            -69
   7812.00000000              5              9            -29             29
   7816.00000000            -63            -59              4              9
   7820.00000000           -275             18             86             17
   7824.00000000            -32            -39             64              4
   7828.00000000           -320           -113             -6             69
   7832.00000000             23           -107             43            -68
   7836.00000000             11           -115            -21            -82
   7840.00000000            -43              3             74           -102
   7844.00000000            -59           -179            -20              2
   7848.00000000            -36            -87             17            -63
   7852.00000000            144            103             68             88
   7856.00000000             10            -11            -22            -62
   7860.00000000             58             25           -135            -79
   7864.00000000             -0             -3            -25            -59
   7868.00000000           -100             30            -37            -24
   7872.00000000             94            135             67             25
   7876.00000000            -96             -3             33            -40
   7880.00000000             13            -38           -158            164
   7884.00000000              2           -144             51             28
   7888.00000000            -33            -73           -153            -82
   7892.00000000             55             56            -65            -31
   7896.00000000             -5             73            -80            -19
   7900.00000000            -26             19              9            -92
   7904.00000000              2             39             -9             43
   7908.00000000             26             10            -71            -77
   7912.00000000            -83              1              5            -53
   7916.00000000             54            -51            -88            -52
   7920.00000000            -77             42           -170             -1
   7924.00000000            147             97            -67             55
   7928.00000000            -54            134             38            -49
   7932.00000000             -4            -20             13             55
   7936.00000000             87            -84            -53             29
   7940.00000000            -62             58            -29           -139
   7944.00000000             40            -48            101             15
   7948.00000000             74           -129             69             72
   7952.00000000           -127             35            -17            -27
   7956.00000000             21           -111             59              5
   7960.00000000            -42            -49            -16           -125
   7964.00000000            -46            -94            -41            -48
   7968.00000000            -63             87             60            -31
   7972.00000000            -83            -59             40            -54
   7976.00000000            -87             58            -16            -71
   7980.00000000             85            -34            -53             96
   7984.00000000            -31             39              0            -18
   7988.00000000            -67            122             10            -25
   7992.00000000             61            -33           -171             42
   7996.00000000             46             93             -2             50
   8000.00000000            -76             32            -22            -23
   8004.00000000            -33             57           -132            100
   8008.00000000            135              6             -0           -111
   8012.00000000            -89             51            -81            -30
   8016.00000000             86            -95             33             17
   8020.00000000           -123            -42            -58            -14
   8024.00000000           -148             15            -29             22
   8028.00000000            -11            -83            -16            117
   8032.00000000           -103            -35             42             16
   8036.00000000             77            -16             73             15
   8040.00000000             28            -14            -40            -32
   8044.00000000            -60            -19            -46            -57
   8048.00000000              3              1             29            -78
   8052.00000000             61             30            -90             80
   8056.00000000             85            -60            -47             94
   8060.00000000            -11            -55             -1            -10
   8064.00000000             64             25            -23            -72
   8068.00000000             24             56             67            -30
   8072.00000000            119            -53            -52            -21
   8076.00000000            -32             15            -83             -5
   8080.00000000            -67             51             10            102
   8084.00000000             61            -39              6            -70
   8088.00000000           -193           -153            -15            -19
   8092.00000000            -59            -13            -79           -131
   8096.00000000             -9             64            -42            -38
   8100.00000000             57             20             77             -3
   8104.00000000            -86             26           -138             26
   8108.00000000             -9            -51              1            -90
   8112.00000000            -31            -44              8            -35
   8116.00000000            -79             38            -14             74
   8120.00000000             -4            -20            -33             10
   8124.00000000             22           -108             25            -24
   8128.00000000             -4             68             45            -61
   8132.00000000            -36             49             60            -70
   8136.00000000             75             32            -45             51
   8140.00000000             20             29             21            -96
   8144.00000000             11            -62            -30            -35
   8148.00000000            -53             29             10             15
   8152.00000000            -11             71            -76            -62
   8156.00000000             26             11             14             21
   8160.00000000            -50            -95            -67            -12
   8164.00000000            -56             12            -74             19
   8168.00000000            -47            -51             87              5
   8172.00000000            -24            -19            -25            -25
   8176.00000000            -16            -84            -71            -35
   8180.00000000            -15            -35             69            -27
   8184.00000000           -116             15             37              1
   8188.00000000              5           -115            -71            -15
##END NTUPLES=NMR FID
##END=
