##TITLE=CEC-PhSi2-flow(sequence-0900)-06-09-26
##JCAMP-DX=5.01 $$ Nanalysis NMReady v2.2.5.1
##DATA TYPE=NMR FID
##DATA CLASS=NTUPLES
##ORIGIN=Nanalysis Corp.
##OWNER=Nanalysis
##LONG DATE=2026/06/09 09:13:16-0400
##SPECTROMETER/DATA SYSTEM=NMReady 60/nanalysis-X542
##INSTRUMENTAL PARAMETERS=^1H
##TEMPERATURE=32.999957
##PRESSURE=1.000000  $$ Bar
##RESOLUTION=0.00001999999949
##SAMPLE DESCRIPTION=None
##.OBSERVE FREQUENCY=60.55095349426941
##.OBSERVE NUCLEUS=^1H
##.SOLVENT NAME=Toluene
##.ACQUISITION MODE=SIMULTANEOUS
##.SHIFT REFERENCE=INTERNAL, Toluene, 4096, 5.00000000000000
##.SOLVENT REFERENCE=5.00000000000000
##.PULSE SEQUENCE=1D
##.DELAY=(0.000000,0.000000)
##.FIELD=1.422202  $$ Tesla
##.OBSERVE 90=15.789399
##.ACQUISITION TIME=6.55279983446235
##.ZERO FILL=0
##.AVERAGES=4
##.DIGITISER RES=16
##.SPINNING RATE=0.000000
$$##.PHASE 0=-20.00000000000000
$$##.PHASE 1=79.00000000000000
$$ NMReady specific parameters
##$SCANS=4
##$SCAN DELAY=1.000014
##$TOTAL DURATION=31.338313
##$X_PULSE=14.210050
##$RECVR_GAIN=12
##$SWEEP WIDTH=20.000000
##$RELAXATIONDELAY=1.280964
##$ZEROING=7.000000
##$APODIZATION=0.030000
##$PHASECORRECTION=-20.000000,79.000000
##$PIVOT=0.000000
##$DT=0.000020
##$LOCKOFFSET=2.080000
##$SPECTRALCENTER=5.000000
##$DECIMATION=40
##$LOWESTF2=-322.245248
##$T2NUCLEUS=1H
##$PULSE_AMPLITUDE=17.500000
##$PLOTTYPE=1D
##$INTEGRALS IS MANUAL=False
##$INTEGRALS REFERENCE ENERGY=38427.781099315820
##$EXPERIMENT_SETTING_Apodization=0.03
##$EXPERIMENT_SETTING_Decoupling Mode=Off
##$EXPERIMENT_SETTING_Digital Resolution=0.02 Hz
##$EXPERIMENT_SETTING_Dummy Scans=0
##$EXPERIMENT_SETTING_Dwell Time=0.50 us
##$EXPERIMENT_SETTING_NPoints (Complex)=8192
##$EXPERIMENT_SETTING_Nucleus=1H
##$EXPERIMENT_SETTING_Pulse Angle=80.37, °
##$EXPERIMENT_SETTING_Pulse Width=14.21 us
##$EXPERIMENT_SETTING_Receiver Gain=12.00 dB
##$EXPERIMENT_SETTING_Receiver Gain (dB)=12, Auto
##$EXPERIMENT_SETTING_Scan Delay=1.0 s
##$EXPERIMENT_SETTING_Scans=4
##$EXPERIMENT_SETTING_Solvent=Toluene
##$EXPERIMENT_SETTING_Spectral Center=5.00 ppm
##$EXPERIMENT_SETTING_Spectral Width=20 ppm
##$EXPERIMENT_SETTING_TX Frequency=60.550953 MHz
##$EXPERIMENT_SETTING_Time Per Scan=7.8 sec
##$EXPERIMENT_SETTING_Zero Filling=7
##$RDC_ENABLED=1
##$RDC_TYPE=CONT5PAR
##$RDC_DATA=(0.145553,5.475700,2.437884,0.765625,0.888815)
$$ End of NMReady specific parameters
$$ Bruker specific parameters
$$ --------------------------
##$DATE=1781010796
##$SI= 65536
##$TDeff= 8192
##$SFO1= 60.55095349426941
##$O1= 302.75476747134701
##$SF= 60.55065073950193
##$BF1= 60.55065073950193
##$AQ= 6.55279983446235
##$SWH= 1250.00003157765696
##$SW= 20.64377122807749
##$SR= 0.00000000000000
##$OFFSET= 15.32196222398173
##$FIDRES= 0.15258789447969
##$O1P= 5.00000000000000
##$TD= 16384
##$DW= 399.99998989515007
##$SPECTYP= PROTON
##$NS= 4
##$DS= 0
##$DR= 16
##$DE=1.000014
##$RG=12
##$P1=14.210050
##$P= (0..2)
0.0 14.210050
##$PHC0= 59.50000000000000
##$PHC1= -79.00000000000000
##$PH_mod= 1
##$WDW= 1
##$LB= 0.02999999932945
$$ End of Bruker specific parameters
$$ ---------------------------------
##NPOINTS=8192
##DELTAX=0.0008000000
##NTUPLES=NMR FID
##VAR_NAME=TIME,FID/REAL,FID/IMAG,PAGE NUMBER
##SYMBOL=X,R,I,N
##VAR_TYPE=INDEPENDENT,DEPENDENT,DEPENDENT,PAGE
##VAR_FORM=AFFN,AFFN,AFFN,AFFN
##VAR_DIM=8192,8192,8192,2
##UNITS=SECONDS,ARBITRARY UNITS,ARBITRARY UNITS,
##FIRST=0.000000,1215.057645,350.375689,1
##LAST=6.552800,-0.000002,-0.000011,2
##MIN=0.000000,-1116.971114,-870.166533,1
##MAX=6.552800,1215.057645,1029.969537,2
##FACTOR=0.00079999997979030013,0.00000056580547802112,0.00000056580547802112,1
##PAGE=N=1
##DATA TABLE= (X++(R..R)), XYDATA
      0.00000000     2147483000     1416367960     -229646102    -1564871191
      4.00000000    -1974125662    -1391818468     -312555802      665837501
      8.00000000     1133931115     1050289801      581393833       83456048
     12.00000000     -154773356     -145356106     -178505973     -484720986
     16.00000000     -927874746    -1041008592     -501091845      530952848
     20.00000000     1455036354     1704072212     1099933100      -60726296
     24.00000000    -1204637302    -1761412898    -1449185700     -440389102
     28.00000000      677076918     1267004709     1099877988      476068503
     32.00000000      -80996822     -258975453     -180391192     -163886033
     36.00000000     -368088743     -649137267     -712233368     -358594392
     40.00000000      341078420     1054295433     1349948954      957390441
     44.00000000       -7250146    -1038852518    -1534382982    -1202028351
     48.00000000     -277108089      660688103     1092371843      900330346
     52.00000000      349143796     -150865020     -340342584     -248994459
     56.00000000     -108457099     -138320821     -355515721     -528794650
     60.00000000     -388037523      141578535      799100079     1135292584
     64.00000000      848577912       33625553     -851526674    -1286592367
     68.00000000    -1022958077     -245425752      580303664      991702750
     72.00000000      831574564      296874665     -223702761     -429418122
     76.00000000     -302263415      -76737892      -12338895     -171624366
     80.00000000     -366771890     -331144315       47672519      580054800
     84.00000000      901983282      728225805       87452490     -672092297
     88.00000000    -1100232982     -928069014     -260148728      505488121
     92.00000000      929973487      808358599      297210904     -242849261
     96.00000000     -489784362     -379311438     -111426465       45782369
    100.00000000      -23453695     -202866621     -245273642      -10899007
    104.00000000      403921216      705244123      623881940      124335532
    108.00000000     -532154814     -948027449     -843508312     -269290756
    112.00000000      436300558      861189649      783457934      308921489
    116.00000000     -231151825     -520067276     -446214087     -160410037
    120.00000000       78613035       98440251      -53440276     -165494396
    124.00000000      -57211061      249418211      526350057      517804165
    128.00000000      143957147     -406557147     -789690371     -745069627
    132.00000000     -273695158      354193821      768834014      742704183
    136.00000000      320587536     -214673995     -533557185     -482109795
    140.00000000     -180016329      106171183      173179984       37802373
    144.00000000     -103631098      -70266256      151396246      384037231
    148.00000000      409952310      142630682     -290949935     -630543947
    152.00000000     -639766341     -275730608      269446574      669084011
    156.00000000      683062455      316377243     -182006301     -501188979
    160.00000000     -480992096     -206361546       89582153      212885627
    164.00000000      134385112      -18296460      -76783875       30859771
    168.00000000      222854199      311899409      172511060     -167225100
    172.00000000     -486416079     -554657188     -279027597      189843230
    176.00000000      565735075      614882543      317125492     -128045370
    180.00000000     -448564431     -479783537     -245328923       65880770
    184.00000000      248505449      213592491       45937431      -82957560
    188.00000000      -53477036       96815720      222131131      171026654
    192.00000000      -69576926     -348630602     -454024342     -277674032
    196.00000000      102309730      458631781      558100240      331459727
    200.00000000      -80239635     -417321538     -483747550     -266647237
    204.00000000       55279282      267907600      259197260       93338081
    208.00000000      -71018202      -97829838       11271901      139767256
    212.00000000      145062768      -13843932     -236765865     -356264638
    216.00000000     -246760324       55045838      366795707      481737290
    220.00000000      310869838      -42795748     -365080259     -460042316
    224.00000000     -289331575       16924276      260309043      304385458
    228.00000000      162266198      -34885169     -132782287      -80570814
    232.00000000       47333207      109605320       28744373     -138728910
    236.00000000     -259946692     -207641973       19450187      282830473
    240.00000000      403514191      284438628      -16046416     -316064574
    244.00000000     -431697707     -299377161       -7074233      257743296
    248.00000000      336552368      212385018       -4001302     -154664273
    252.00000000     -148987717      -37631920       69157530       63262735
    256.00000000      -48553959     -165082283     -165288965      -14683187
    260.00000000      201284230      327548868      255541291       12010095
    264.00000000     -257659445     -388552707     -289414396      -29405177
    268.00000000      231225748      336431229      239377495       25793035
    272.00000000     -156472576     -198237814      -99417197       32801192
    276.00000000       84461418       24551767      -82518742     -125123944
    280.00000000      -42393229      121708672      244349439      217260401
    284.00000000       37703576     -193931578     -327308718     -270266268
    288.00000000      -50107493      197709384      319452370      246444891
    292.00000000       40934972     -150530051     -218440184     -138541017
    296.00000000        2800232       95045164       79870639       -7660081
    300.00000000      -78177655      -59469266       44217486      154674766
    304.00000000      171750754       54003972     -134169986     -263877385
    308.00000000     -234317835      -53069737      166995682      284383288
    312.00000000      231834698       50739925     -139411000     -229096983
    316.00000000     -172083657      -24060287      108988506      134865634
    320.00000000       58414914      -48924798      -82372034      -18797529
    324.00000000       85800492      125824380       55203883      -84785092
    328.00000000     -192664969     -181377899      -51025451      127768327
    332.00000000      239758037      214580673       56361876     -137194951
    336.00000000     -242139232     -187443363      -26599260      123904907
    340.00000000      168310471       93254363      -21896394      -83919228
    344.00000000      -55960151       21657753       72264447       55813921
    348.00000000      -28773195     -116317660     -137857262      -57761491
    352.00000000       85970047      197906854      186632178       52901026
    356.00000000     -124086590     -217034122     -175244759      -34082789
    360.00000000      108376290      166380855      119206801       13569359
    364.00000000      -78329705      -96479307      -37309622       38252358
    368.00000000       66563524       18724719      -65865378     -108550664
    372.00000000      -59500646       54865852      150866461      152146113
    376.00000000       48935354      -88316976     -176032968     -159488530
    380.00000000      -48676907       85069533      160624052      135067432
    384.00000000       32074823      -78013868     -114580166      -65199472
    388.00000000       17830546       66809654       43474074      -25663522
    392.00000000      -71059559      -53572896       20968104       97296875
    396.00000000      116777047       55307584      -54807859     -141600590
    400.00000000     -144972396      -54562220       70108599      147675055
    404.00000000      129671014       32197840      -69581271     -113206275
    408.00000000      -73244662       -1342124       58866083       57201110
    412.00000000        8867944      -42591470      -52770168       -5260983
    416.00000000       59626735       90713782       54820648      -32063050
    420.00000000     -110395548     -118524849      -51410688       54154579
    424.00000000      122871186      114834499       34921915      -55810820
    428.00000000     -105114733      -84072246      -14177214       53508770
    432.00000000       71365660       31044338      -27319988      -52494401
    436.00000000      -23988614       31577352       67761337       49309613
    440.00000000      -14805052      -79281981      -96130394      -51671020
    444.00000000       36260949       98224208      104374855       44028794
    448.00000000      -40674689      -96106626      -85407669      -21661890
    452.00000000       49373747       70920545       40653952      -14765619
    456.00000000      -45017105      -33130115        9318293       46641933
    460.00000000       45623973        3048623      -52021034      -76049254
    464.00000000      -43990438       21132683       78575642       86995478
    468.00000000       37616395      -33970843      -80211642      -75127300
    472.00000000      -24067753       35093001       62264469       48932127
    476.00000000         -44462      -37604815      -41324554      -10992946
    480.00000000       28461964       40836998       13147874      -30174403
    484.00000000      -56579997      -38840695       12144024       59305676
    488.00000000       67851619       33633067      -22071023      -68814183
    492.00000000      -67969237      -26958790       30387650       63614216
    496.00000000       52736861        7411226      -35632607      -43772824
    500.00000000      -19448536       16161096       30522611       16692729
    504.00000000      -15728047      -37217088      -30353810        3274409
    508.00000000       40869246       57332668       32301834      -17462783
    512.00000000      -59347478      -63404620      -26006103       25956863
    516.00000000       55810961       50621548       10022497      -26150898
    520.00000000      -39534637      -25111304        5697908       26232455
    524.00000000       21649726       -5437764      -27780568      -29071257
    528.00000000       -3727375       31739044       46865724       27996481
    532.00000000      -11929632      -47291713      -53131728      -24745172
    536.00000000       16471927       46815106       46641249       15435565
    540.00000000      -18872987      -36826521      -28548023       -1258631
    544.00000000       19540237       20434282        3556772      -17472448
    548.00000000      -21652427       -4633544       20167997       31582531
    552.00000000       23617393       -7924890      -35718935      -41602296
    556.00000000      -22662574       14259585       39001550       41080156
    560.00000000       18684390      -14362655      -34594698      -28993692
    564.00000000       -8200930       13809944       21228096        7419094
    568.00000000       -8007426      -18451866       -7320251       11304360
    572.00000000       23568690       17462968       -4180733      -27775589
    576.00000000      -32801534      -18003229       10467039       32787754
    580.00000000       32827902       14094298      -11752525      -30126953
    584.00000000      -27024897       -8862553       13431531       19722411
    588.00000000       13066100       -3335686      -13005754       -9540686
    592.00000000        4960069       16052874       14103529       -2111354
    596.00000000      -18091430      -26233866      -13874140        6935727
    600.00000000       26279408       27566842       13717800       -9374456
    604.00000000      -25616557      -24693171       -9017283       12849279
    608.00000000       17503569       13464279       -1449459      -10998593
    612.00000000       -9201644         341295       11113982       10081883
    616.00000000        1882702      -14021981      -21119803      -13571927
    620.00000000        3652327       19954247       23968535       13047789
    624.00000000       -6241699      -21412118      -21103239       -9655860
    628.00000000        5263633       15984397       13010419        1937383
    632.00000000       -8074604      -10129806       -1405358        8317347
    636.00000000       10106256        2611619      -10509218      -15172016
    640.00000000      -11179923         953263       14798481       20657980
    644.00000000       11726036       -3719313      -15882987      -18559896
    648.00000000      -10179806        4518655       15464861       11172909
    652.00000000        3501117       -6610679       -8618380       -3107089
    656.00000000        5187307        9190290        1428364       -9059553
    660.00000000      -12019862       -9107657        1513031       13430921
    664.00000000       18864988        9886582       -2797922      -15560182
    668.00000000      -14261828       -8400659        3686178       12286645
    672.00000000       11634898        4743064       -4072149       -7701681
    676.00000000       -4066547        2701800        6722235        3456114
    680.00000000       -4832195      -10038189       -8109988         -38523
    684.00000000       10183007       15188015        9429122        -870431
    688.00000000      -13144342      -15031086       -8584655        1057982
    692.00000000       10429963       11828405        4318440       -1628547
    696.00000000       -5566054       -5178410        1133159        3074497
    700.00000000        3470420       -2842216       -7366813       -6781222
    704.00000000       -2286494        7439953       12483633        9746499
    708.00000000        -500686      -10784710      -14905522       -9552810
    712.00000000        -190376        7830793        9942899        6237469
    716.00000000       -1652041       -5706618       -3483525       -1921845
    720.00000000        2076872        2074762       -1992558       -5773666
    724.00000000       -4781451         -85231        6416480       10931099
    728.00000000        8468188         193192       -9118197      -10622732
    732.00000000       -9239714          91677        6808421        9418865
    736.00000000        7151183         229483       -4866131       -4931758
    740.00000000        -883273        1632439        1728868         -87695
    744.00000000       -4136300       -4424375        -652601        5411805
    748.00000000        8303445        7573363        1259406       -6376954
    752.00000000      -11452149       -8624462         268362        6439910
    756.00000000        9705847        7884602         390254       -5659950
    760.00000000       -6075337       -4220115        2158512        2440449
    764.00000000        1576710       -1965171       -2927059       -1251443
    768.00000000        3157913        7840142        6712288         957927
    772.00000000       -4006446       -8893039       -8272530       -1978043
    776.00000000        5281761        9246103        5773463        -429124
    780.00000000       -3370733       -5777852       -3421886       -1897503
    784.00000000        2145459        1383920         869044       -3363921
    788.00000000       -1878602        -249760        6137812        7629423
    792.00000000        2832504       -4215520       -6918491       -7315314
    796.00000000       -1720675        4544595        6442066        4406224
    800.00000000        1203865       -2083655       -2455928       -3078951
    804.00000000         257228         993148         545366       -1365199
    808.00000000       -1416702        -950647        1718428        4205691
    812.00000000        2740106         998522       -1734861       -4456983
    816.00000000       -5419242       -1104351        1086309        5565424
    820.00000000        4992078        2802154       -1039826       -4601036
    824.00000000       -2967411       -1841553         145618        1025058
    828.00000000        1022624        -249144        -306711         -92989
    832.00000000        2399216        2368246         817963       -1370242
    836.00000000       -3626057       -4429308        -940369        3195651
    840.00000000        5034075        3363351        1996565       -2123270
    844.00000000       -3709662       -4118889       -1379332         353599
    848.00000000        1773825        2040046         290718        -358461
    852.00000000         566407        1159021        1862389        -202642
    856.00000000       -1874780       -2496635       -3989995       -1942537
    860.00000000        1829868        3873364        4135759        1484147
    864.00000000       -1326359       -3880043       -2982513       -2247863
    868.00000000        2110706        1276186        2412785         364444
    872.00000000         -54988       -1597566         720152         158927
    876.00000000         347003       -1618674       -1542372       -1810399
    880.00000000       -1350967        2052230        3120684        4620704
    884.00000000         970012       -2454027       -4681687       -3245749
    888.00000000       -2023551         334126        1443978        2955049
    892.00000000         935588         121191         276285       -1074636
    896.00000000        -798004        -678103        -677836       -1340535
    900.00000000       -1177449         944035        1784273        2233540
    904.00000000        2958171         484882       -2231205       -2518720
    908.00000000       -3344159        -162033         822625        2431544
    912.00000000        2898996        1574607         227027        -798284
    916.00000000        -879663        -362420         797799       -1090115
    920.00000000       -1722325        -389039        -315343         995924
    924.00000000        2121500         619061        2159505        -698462
    928.00000000       -1869547       -2477327       -1532830        1222958
    932.00000000         894937        1986556        2550920         604398
    936.00000000        -381512       -1867384        -633956        -650952
    940.00000000         346167        -770844         325957        -975455
    944.00000000        -223071        1238511          25236        1131660
    948.00000000        -951696       -1742478       -1436867       -1212945
    952.00000000        1230733         435574        1408360         780714
    956.00000000        -144075         -52688         125222         631965
    960.00000000        -128252         151318       -1448163         -55282
    964.00000000        -989433        -516125         310611        1295009
    968.00000000         406359        -589426       -1831335        -507886
    972.00000000       -1695605        -435452        1217093         581656
    976.00000000         819064         380747        -827067       -1163926
    980.00000000       -1128238         882459         203859         593235
    984.00000000         538760       -1363355        -467585        1706299
    988.00000000         809921        1080221       -2056652       -1007834
    992.00000000        -921341       -1289945         141548        1217831
    996.00000000         580141         558768        -164091        -824429
   1000.00000000         454732        -638549         -83670         457477
   1004.00000000           9748       -1174336       -1212901        -111814
   1008.00000000         951570         788097        -461462        -479503
   1012.00000000        -486284       -1252924       -1034177          80368
   1016.00000000         -15512         935798         591058         -66231
   1020.00000000          89678        -286735       -1064444        -360681
   1024.00000000        1178622        -343561        -814071         205008
   1028.00000000         384759         319637         678538         550518
   1032.00000000        -738165       -1641543       -1217769          87803
   1036.00000000          91792        1672408         894771         332460
   1040.00000000         430674        -927753       -1221527          78560
   1044.00000000        -870343         616745          63878       -1495128
   1048.00000000         -37910         -16636         254468         550152
   1052.00000000        -291238        -528924       -1556787       -1180322
   1056.00000000         449514        1051838        1364097         953833
   1060.00000000         194249         188483        -713681        -965338
   1064.00000000        -537911         207209         254773         537970
   1068.00000000          64715        -321862           9593        1225440
   1072.00000000         513711        -240867         128867       -1842146
   1076.00000000        -930483        -120869        -377403         921073
   1080.00000000        1306269         837905        -617277       -1283250
   1084.00000000       -1945798       -2337553       -1183792         170672
   1088.00000000        -187114        -357078         223877         423448
   1092.00000000        -795003         625242        1003748         106111
   1096.00000000       -1302599       -1151753          74519         282322
   1100.00000000        1655046        2376912         787180        -466999
   1104.00000000       -1211591       -2736079       -1073572        -798888
   1108.00000000        -198628         231503          45084         140430
   1112.00000000         170271         -41419        -206080        -829864
   1116.00000000        -618002       -1518139       -2575987        -899954
   1120.00000000        1399080         838051        2204080         408019
   1124.00000000         -56684        -613070       -1371777       -1249748
   1128.00000000        -445476         261144        1600443         637476
   1132.00000000        1936061          10130         427582        -719648
   1136.00000000        -312867        -580195        -501913        -803844
   1140.00000000       -1082953        1060025        1623721        1048017
   1144.00000000        1238405        -225312        -795451       -1048738
   1148.00000000        -694354         214592        -149737         859067
   1152.00000000         753199         277504        -337016         244825
   1156.00000000         757065         -65827        -102347       -1611713
   1160.00000000       -1526023       -1130769          88312        1396707
   1164.00000000        1485133        1046584        -220522       -1047605
   1168.00000000        -872668        -601506          96232        -130737
   1172.00000000          33908         505576         -89761         658175
   1176.00000000        -329745        -443679        -287929        -799333
   1180.00000000       -1411513        -642601        -869381         403909
   1184.00000000         880450         799488         533259         773893
   1188.00000000          70972        -583734        -695964        -339243
   1192.00000000        -648443        -762585        -719919        -455391
   1196.00000000         361942         984786        -516276        -290436
   1200.00000000         102692       -1542096        -782530        -429887
   1204.00000000          63046         556957         630007         413574
   1208.00000000        -612408         544859       -1641169         392067
   1212.00000000         318315         771598        -500446         415577
   1216.00000000         839243          93896         727522          94989
   1220.00000000        -161650        -568874        -300238        -187906
   1224.00000000          98292          38794         -67037         295210
   1228.00000000         175274        -791037         187679        -503108
   1232.00000000          71910         350577         -87221        -619171
   1236.00000000        -286098         271993        -220787        -779032
   1240.00000000         208656         446075       -1203740         -93966
   1244.00000000        -353597         173578        -248819         337086
   1248.00000000         690213        -210607           8224         408549
   1252.00000000        -555338         -29980        -980831         728650
   1256.00000000         297471        -373525         -48997        -905271
   1260.00000000        -241763        -678639        -446775        -199108
   1264.00000000        -964261         244334         -28048        -518146
   1268.00000000         565931         720059        -551097        -143154
   1272.00000000       -1079041        -735734        -125762        1450661
   1276.00000000         186080        -674595        -136497        -759163
   1280.00000000         -11892        1278369        -448302       -1271302
   1284.00000000         194696        -744940         552242         161732
   1288.00000000         471823         254302         -18154        -921985
   1292.00000000        -208800        -380344         -64918        -324878
   1296.00000000         132514         338462         550210         128614
   1300.00000000        -364268         643859        -891640         138273
   1304.00000000        -993352        -301219        -143510         667010
   1308.00000000         437051         605469         152741        -400068
   1312.00000000          63341        -410325          43251        -412501
   1316.00000000        -530047        -616124         343961         386056
   1320.00000000        -472961        -302695         -41361        -511143
   1324.00000000        -760451            185        -192925         564369
   1328.00000000        -297484          -2297         251093          83617
   1332.00000000        -308670        -670911         147334          -7553
   1336.00000000         185670         827551         653505         141796
   1340.00000000         106971         383892        -702271         241659
   1344.00000000        -186370        -709218          42949       -1114189
   1348.00000000        -107694        -536221        -456271        -365198
   1352.00000000         349022         633363        -148082        -822279
   1356.00000000         -31671        -191171        -552411        -585516
   1360.00000000         700621         136225        -500516        -203576
   1364.00000000        -401528         -40902        -525868        -294639
   1368.00000000          60984         788787         304189          61855
   1372.00000000        -672508         464218         -57605        -245315
   1376.00000000         525604         109025         -20342        -420318
   1380.00000000         303222        -859330         274675        -177216
   1384.00000000         428535         506917         173328        -184794
   1388.00000000        -171834        -176503         406646         114112
   1392.00000000        -429617         368078        -811369         -47954
   1396.00000000       -1252041          41189        -184072        -308780
   1400.00000000        -209823         846544        -610435        -194719
   1404.00000000        -330165         237348         -19218          11583
   1408.00000000         459388        -152997        -288862         427625
   1412.00000000         328650        -499655        -721747        -336730
   1416.00000000         303564         357120          77208         109788
   1420.00000000         -13929         586283         654718        -247147
   1424.00000000          72762         491465          16298        -152095
   1428.00000000        -186242        -300689         224525        -270077
   1432.00000000         174426        -153102        -906341         493552
   1436.00000000        -134397         150878         448609         -71563
   1440.00000000        -340795         511494         353267         -83738
   1444.00000000         179286         388793         573913         -36283
   1448.00000000        -390433         530745         274511         -95578
   1452.00000000         303885         115797         163639        -629548
   1456.00000000        -731225        -178815         170075        -209649
   1460.00000000         -61401        -107650        -195149         519834
   1464.00000000         -25910         -87206          -6286        -463083
   1468.00000000         463816        -266666         327648         462162
   1472.00000000         296582         264393         188218        -938363
   1476.00000000         399944         423287        -532878          61180
   1480.00000000        -469080        -265106         249484        -177180
   1484.00000000        -476979        -317159           -436         -31342
   1488.00000000        -357978         -96246        -492349        -139704
   1492.00000000         358840         -57931         615570         752139
   1496.00000000        -271414         567852        -506472         -48475
   1500.00000000         177728        -263928        -447410          13435
   1504.00000000         -32605        -280780         574670         -35430
   1508.00000000        -492823        -276754        -334277        -247620
   1512.00000000          32078        -629314         296001          24685
   1516.00000000         741238         130922        -428999         223447
   1520.00000000         160877         -48235          50991         -38266
   1524.00000000         -46642         295578        -123462         419249
   1528.00000000         353908        -300824        -196588        -177774
   1532.00000000        -557799         -88589        -349820         837073
   1536.00000000        -231497         169418          -4756         -53983
   1540.00000000         139149        -630872         -74250        -219052
   1544.00000000        -246626         142709         245832        -695698
   1548.00000000         -57025        -847134          71413        -302079
   1552.00000000        -277708        -666603        -352916         175441
   1556.00000000         288239         174144         151680         308298
   1560.00000000         -94165         -99450        -496391        -515917
   1564.00000000        -106622         -31172        -115225        -167722
   1568.00000000         206529        -163736        -211049          22596
   1572.00000000        -240755        -138350        -137399         -50513
   1576.00000000        -224371        -334481        -183979        -276438
   1580.00000000         310184        -191778         124800        -521923
   1584.00000000         -92185          -7022         293101         145719
   1588.00000000        -288428         182416         772293         464116
   1592.00000000          -2541        -508425        -327626        -243969
   1596.00000000        -523314         -96741          76864         196105
   1600.00000000        -367407         -76431        -556789        -627977
   1604.00000000         288943          77176         -69926         -80698
   1608.00000000         229014         -65462         245454         573764
   1612.00000000        -302286        -335273          57578        -438232
   1616.00000000        -496283        -103876        -437417         304779
   1620.00000000         521886          18815         330357        -129106
   1624.00000000        -166091         -18284        -436933         146365
   1628.00000000        -455340        -275198          37188         -59370
   1632.00000000         137505        -222637        -548898         463434
   1636.00000000          61032        -679261        -302211         121084
   1640.00000000         228852        -128855         155486        -318104
   1644.00000000          68379          83497          92704         337883
   1648.00000000          66069         341246          70871         170850
   1652.00000000         -88244        -257940        -564042        -505607
   1656.00000000         -60230        -414685         111730          -7160
   1660.00000000         -14945          50068          11842        -183141
   1664.00000000         -26245         283030        -316361         210562
   1668.00000000          -3871         144679          -2630         -46345
   1672.00000000           3128         -56614         -83648         -93794
   1676.00000000         204594        -184184        -121619        -380053
   1680.00000000         -82342        -401401         333817         -17302
   1684.00000000         134524         -24048         245316        -630313
   1688.00000000          52799         307076        -130600         336565
   1692.00000000         323736         -76475         120922          37344
   1696.00000000        -246716        -470444          52470        -141694
   1700.00000000        -193600        -205683         -21043        -218655
   1704.00000000         538133        -288142         -40948        -173201
   1708.00000000        -572600        -177640        -480224         118132
   1712.00000000         136969         246193        -249736        -197093
   1716.00000000         321945         104600        -542612        -769372
   1720.00000000          15815         346986         424253          19812
   1724.00000000         161493         -19183         206069         209406
   1728.00000000         127007        -493921         196129        -431894
   1732.00000000         153105         122214        -234086        -154429
   1736.00000000        -375798          95610         164296        -518543
   1740.00000000          56827          54219         -76730         144735
   1744.00000000         -36985        -304914         358720         164566
   1748.00000000        -322935          45037         -16301         497258
   1752.00000000         244731        -272899         146594        -154671
   1756.00000000         -60792         381722        -267798        -221181
   1760.00000000         -55375         -17565        -418098        -199453
   1764.00000000         388805         341683         206859          89795
   1768.00000000        -446764         -47647          38198          15676
   1772.00000000         419808        -133942         310046        -209102
   1776.00000000        -186654         340548        -486429         -33595
   1780.00000000        -324346         -84634          -3542         438621
   1784.00000000         127910          49972          -4398        -389031
   1788.00000000         252851         -35288        -363629         137260
   1792.00000000          39592        -486654        -120426         243805
   1796.00000000         -99669        -158192        -117818          14789
   1800.00000000        -124646         169053         134145          94627
   1804.00000000         -31443        -130673         254633        -353282
   1808.00000000         163985         -88090         -55399         -77200
   1812.00000000         130401        -174683          20966          84299
   1816.00000000         -63182         -32366        -260857        -200431
   1820.00000000        -164445          63153         336277           4838
   1824.00000000        -211882         200647           2085        -103195
   1828.00000000        -373540        -299424         104919        -133053
   1832.00000000         130039          76251        -157367        -321196
   1836.00000000         -23825         203499         102313        -479977
   1840.00000000          24414          85627        -642008          -6933
   1844.00000000         270174          50662         204799           3953
   1848.00000000         -82224          94551        -108839        -235970
   1852.00000000         -64833         -29079         -37301          57872
   1856.00000000         223211         114385          -2837        -367172
   1860.00000000        -159481        -304120          20202        -404505
   1864.00000000         508225         205844        -105880        -132048
   1868.00000000         -46631        -323692        -280435        -118122
   1872.00000000        -125131        -235034         -39038        -237071
   1876.00000000         164561          68612         313440         -19166
   1880.00000000         200446          59691          -2304          77350
   1884.00000000        -138498         -43061         456251         348588
   1888.00000000          -4248         160287         218364         100887
   1892.00000000        -321362         -62678         -41976          81162
   1896.00000000         -53374         260234         -20937         -17541
   1900.00000000        -164276        -113796          89827           1884
   1904.00000000          60285         -10840         -47888         124080
   1908.00000000         279989         -57097         -92740        -305605
   1912.00000000        -261072          60386         186799        -152084
   1916.00000000         122825         -26020          18610          58262
   1920.00000000          84048         210880          43536        -220661
   1924.00000000        -402148        -192896        -338500         267116
   1928.00000000         175625          49785        -212153        -118117
   1932.00000000         -53697        -376435          55782          56754
   1936.00000000        -179708            987         222862         255147
   1940.00000000         132292        -307751         479440        -318310
   1944.00000000        -426873         111493         -40628        -132478
   1948.00000000        -125514         153672         -64894        -268922
   1952.00000000         249285         -21155          91625          -9594
   1956.00000000          77660          92423          28781         211072
   1960.00000000          35643          53296         378374          75059
   1964.00000000         112624         -56472          32390          46243
   1968.00000000         129722         278110         265288         191592
   1972.00000000        -120078         127106        -142874        -197700
   1976.00000000        -227270        -181418        -164584          85840
   1980.00000000         -16079         164207        -151927          73824
   1984.00000000        -152421         -59805        -290080        -118208
   1988.00000000         161116          -1718         120740         169855
   1992.00000000         198678          -7835         210054          26086
   1996.00000000         -50167        -248575         297817           4040
   2000.00000000        -253418        -517510        -334774         -72019
   2004.00000000        -376389         -81790        -404414         175880
   2008.00000000         158209        -159133          36553        -245957
   2012.00000000         264464        -249905         231567         -28665
   2016.00000000        -215205          15735         -67722         168302
   2020.00000000        -272466         101049         249054         182462
   2024.00000000        -122937        -285334          -6280        -162094
   2028.00000000        -323827         163597        -129774         205206
   2032.00000000         168882         126096        -195621        -177088
   2036.00000000        -145596        -154210          55530         187897
   2040.00000000          13899         -19245         228598         310754
   2044.00000000         361011           6274         157945         -32248
   2048.00000000        -187509          -9884        -179103        -353006
   2052.00000000          62504        -159824          36363         221653
   2056.00000000        -143224         224327        -384416        -258439
   2060.00000000        -327994           4686        -138605        -160913
   2064.00000000          70643         -18232          28163        -197416
   2068.00000000         -21319        -242510          52055         -78354
   2072.00000000         -95654         133030         112233         433794
   2076.00000000         106232         -33336        -298279          34821
   2080.00000000         -12184         -80962          85980           4259
   2084.00000000        -159234          87053         178577          60810
   2088.00000000         235702        -291160          69302         236366
   2092.00000000         439861          73073          23321          86656
   2096.00000000            -71         120757         -29015        -229595
   2100.00000000        -303696          87310         132086         -44708
   2104.00000000        -214588           -460         -65934          92481
   2108.00000000         -90143         -65301         101738            573
   2112.00000000         217099          -3509        -171938        -304736
   2116.00000000           1737         375161          88813        -261253
   2120.00000000         228949         -78706         102894         -29049
   2124.00000000         113602          96158          84557          99138
   2128.00000000        -137607         102913          49361         -37088
   2132.00000000        -126280        -243854        -204012         -34418
   2136.00000000         -89379         109084          25980         -81370
   2140.00000000         -91899          18431         -46765        -119128
   2144.00000000        -167129         183202         -74102         -97075
   2148.00000000          59695          63938        -307205        -179385
   2152.00000000         128867        -104557        -208477         207595
   2156.00000000         -32085         -49438        -219863        -111403
   2160.00000000         185045         -77221         255436         -58766
   2164.00000000         -42733           2353        -132017          20787
   2168.00000000         307690        -151349          34304         -98679
   2172.00000000           -235        -283475        -248480          16029
   2176.00000000          43935           4835         135132          17460
   2180.00000000          64745        -103001        -108097          12151
   2184.00000000        -186877        -221828         339486        -112697
   2188.00000000         114256         -37179         -13138         193137
   2192.00000000         181539          35902         -42109         -16324
   2196.00000000         210507         -81948         -36287        -232421
   2200.00000000          86061        -222164         108578         146207
   2204.00000000          91713        -184471          39070          27461
   2208.00000000        -170741         -39734           4900          86335
   2212.00000000        -106561          68913        -185082         -33516
   2216.00000000        -279588         164643         -28392         168257
   2220.00000000        -198836          28394        -208535         -17973
   2224.00000000         -98558         154573          12368        -112383
   2228.00000000         -93237          -8604          27218        -136121
   2232.00000000        -175085        -189582         -11747         279032
   2236.00000000          82241           1834          46509         107447
   2240.00000000         169899           8805          72534         298004
   2244.00000000          20114        -121123         -60854          63952
   2248.00000000         218231         140083        -107283         -19445
   2252.00000000        -295844         -29472         -53872           5668
   2256.00000000         -55472         337881         -49988          27036
   2260.00000000          17656          42057          17008         -51582
   2264.00000000          88363         123408          86369         -98916
   2268.00000000          27371          34235        -131586        -367649
   2272.00000000        -120799        -137145        -211295        -283505
   2276.00000000          55283         112908         -65188         -17113
   2280.00000000        -134872           7431          26024         162181
   2284.00000000        -138584          74200        -333346         -98931
   2288.00000000        -176139         -13008          10651          -4798
   2292.00000000           9185        -100746        -133159         -18565
   2296.00000000         -66529         134702         -20755         -55153
   2300.00000000          20735           2541        -126888         183678
   2304.00000000         -42499        -315643         -21417        -102545
   2308.00000000          36144           -498         -91094         219681
   2312.00000000         -98153         -85473          38410         180232
   2316.00000000          71421         -58313          43427         -18706
   2320.00000000         252750         -13223        -118225         -37468
   2324.00000000        -135524        -202688         -70296          53193
   2328.00000000         -93188          92251         -97669         -89145
   2332.00000000         104296          87079          50986         -26987
   2336.00000000           2873         131552          82955          57306
   2340.00000000        -111416          86673         -63527         111080
   2344.00000000         111841        -254933        -220999         -68493
   2348.00000000        -106453         229975        -103262         118273
   2352.00000000          67995          67906         -50810          88232
   2356.00000000         132120        -158866        -186283          32313
   2360.00000000         -86599        -120727         162730         -68550
   2364.00000000         -23759         170835        -136800        -124034
   2368.00000000        -121978          98445        -205365          -5376
   2372.00000000        -111130          -5710        -178918        -183383
   2376.00000000        -303997         -83963          58451        -114760
   2380.00000000          45147          -3652        -129935          26881
   2384.00000000         -27021        -209533          36072           -286
   2388.00000000        -255996          20397        -202203          87472
   2392.00000000         -71815        -138782         251039        -104825
   2396.00000000         -41297          50909         -76273         150214
   2400.00000000          -2885          76663         -66586          -2835
   2404.00000000        -283250          87153          83806         216371
   2408.00000000         -72017         -29106         -33275        -107749
   2412.00000000         106740        -235517         137837        -165862
   2416.00000000         -27163         -44731          -8848        -230117
   2420.00000000        -186248          17134            600           4795
   2424.00000000         -92376         -92347        -111680         -45612
   2428.00000000          65343         -50147          -8535         262125
   2432.00000000          11786          69740         -19761         334290
   2436.00000000         -84102         -75815         -79509           9619
   2440.00000000          63310         -42419        -234433          39084
   2444.00000000         122425         147973          27949         120691
   2448.00000000        -134743         -25185         -68623         -66028
   2452.00000000         -21946          44223         -78833         -78940
   2456.00000000         -12708         175242         163303         174688
   2460.00000000         -51047        -122473          76386        -171809
   2464.00000000         -10791          57650          46131         179364
   2468.00000000          42507         -57218        -109538         -64696
   2472.00000000         -14917        -181162         129427         -66410
   2476.00000000         125843         301868         -30984         183195
   2480.00000000          55772         -31201          99901         -35930
   2484.00000000          28177          61237          -3613          14152
   2488.00000000         -56211         -54915         -82108         -26116
   2492.00000000         -87114        -186284        -142177          73170
   2496.00000000          63574          86745         -26294          18570
   2500.00000000         -81793         -88837          22234         -28067
   2504.00000000         -20071          34380          24156          -1595
   2508.00000000          41387         -61503          52917          62877
   2512.00000000           5366         -18164        -106471         -44866
   2516.00000000           9276        -138317         -15321            665
   2520.00000000        -108588          17741         -64970          34801
   2524.00000000         -30425         117670          93840          38080
   2528.00000000         -33068          42792         182046         -94467
   2532.00000000          70385         121846         116839          81045
   2536.00000000         -27858        -106217         -47656          97489
   2540.00000000          23810         -19505          23246         141262
   2544.00000000          -8105        -111450         -29082        -136899
   2548.00000000         -56271         159175          81006         -49050
   2552.00000000         -56092           4097         -60483         102403
   2556.00000000          34651         -95663         -98432         -10803
   2560.00000000        -121742         149709        -120110           3169
   2564.00000000         -29529           5010          16703         -16516
   2568.00000000           6512           6649         131624        -164998
   2572.00000000         -89599         -33143         -66157         -13032
   2576.00000000         -34665         161724          26273          44641
   2580.00000000          80448           6090          50143        -154502
   2584.00000000         -10282        -123421          -8941         -14353
   2588.00000000          -3277          66134        -113228        -133911
   2592.00000000         -36470         -37992          49898          10831
   2596.00000000         -20198         156471         -25865         -47610
   2600.00000000        -127540          -1105           9831         -47180
   2604.00000000           5764         124010         100621          -1897
   2608.00000000         112776          -1815          84610         -27337
   2612.00000000         -13716         103999         -68210         -23349
   2616.00000000         -49232         -80005          89369        -152333
   2620.00000000        -186438        -110960         -45462          21157
   2624.00000000         -25097         -84521         -48552         -43995
   2628.00000000         -49239          -8183         -11292           6816
   2632.00000000          -8568          15402         -40165         -66601
   2636.00000000          31487          68047         -89565         -29299
   2640.00000000         183110         -99824         110199         -29063
   2644.00000000         -42041         -55904          83396        -144258
   2648.00000000          71416          38433          -9142          52022
   2652.00000000         -41993          61231        -161273         -35166
   2656.00000000          50694         154349         -13032           8274
   2660.00000000         -61315         102061         -52965         -52004
   2664.00000000        -133359         116765          65732         -28800
   2668.00000000           9673         143480         -36605         -95806
   2672.00000000          99298         -85469           -765          98104
   2676.00000000         -55305         -54744          22932          40546
   2680.00000000          -8948          34874         -77172           6218
   2684.00000000         -21056          43474         -48218          82538
   2688.00000000          -2146          73302        -166547         -69340
   2692.00000000          14909         114955         -31030         -78346
   2696.00000000         -26180         -34532         -79683         -39017
   2700.00000000          15102          88887          59663         -16577
   2704.00000000         -34616         -33488         -60554         -71408
   2708.00000000          -6182         -43015         -14669         -58260
   2712.00000000          79939         -33278          46681         103688
   2716.00000000         -21135          24992         129164         176561
   2720.00000000         -10060          25000         -45185         -93105
   2724.00000000           -597          49989         -48428         -37679
   2728.00000000         101325         -26081          -3308         -87526
   2732.00000000         -66340          79283         -23299          -8430
   2736.00000000           7772         -31292          80543         121201
   2740.00000000         -21560            414          51329         -42018
   2744.00000000         -57156          -9183         -92584          -4364
   2748.00000000         -53337         147135          63224         -23476
   2752.00000000          30663        -203581          -5621        -156942
   2756.00000000          54248          62300          24883         -51763
   2760.00000000          70634          25362         -14038         -13978
   2764.00000000         138150         -59302          -5533          60529
   2768.00000000          15838         -69655        -178985          75118
   2772.00000000          90847          36306         -75699          -5544
   2776.00000000        -145889         -25199          34997           6160
   2780.00000000        -113659          28818         -58437         -43436
   2784.00000000          64982          21024          63366        -135916
   2788.00000000          -5354          89705         -68274         -39768
   2792.00000000         -79703         -58624           3589          38249
   2796.00000000         -41473          34006          -9296          41598
   2800.00000000          18195         167256        -106641          53312
   2804.00000000         -97327         -34384        -131733         -40439
   2808.00000000          32021          -3019         -45288          44414
   2812.00000000         -73006            706         -22133          44655
   2816.00000000          26323         -69601         -54586          35173
   2820.00000000         -14422         -15641          57219         -20540
   2824.00000000          -4756           -891         -48772         147677
   2828.00000000          43639           -319         -46144          52491
   2832.00000000           1765          81838          15961         -26357
   2836.00000000         -59571        -119133         -98989          19480
   2840.00000000         -42030          50071          53820         -12727
   2844.00000000        -148566         103403         -83394         119856
   2848.00000000         -96190          22232           -929         -64780
   2852.00000000          35839          23735         -26918          46528
   2856.00000000           3229        -137996        -100287         -33541
   2860.00000000         -97171          -8491        -119215         -28311
   2864.00000000          46066         -61822          20810          51873
   2868.00000000          95165         -25818         -98773          41887
   2872.00000000         -57281           8427         -22245         -30698
   2876.00000000          66803         -17783          49992          10082
   2880.00000000          46923          62395          52984         -76623
   2884.00000000         -66078         -79203          46435        -139254
   2888.00000000           4381          90637         -63748         -25606
   2892.00000000         -17904         -18296          77722         -22568
   2896.00000000         115618         -28341         -40227          33698
   2900.00000000         -92615         -33025         -59251           2712
   2904.00000000         -38524         107289          54576         -77726
   2908.00000000          31297          39018         -42533           6096
   2912.00000000         -40817         -22177          -9265         -87569
   2916.00000000          -7274          84217          45387         -59236
   2920.00000000         -75491         -69834          26666          19118
   2924.00000000         -26101          58257          -3151          -1234
   2928.00000000          24775         -76983         -10410         -51123
   2932.00000000          58650         -34950         -55616          49143
   2936.00000000         -14087          16826          41419          17693
   2940.00000000           -837         -87196         -12092          76385
   2944.00000000         -39371        -124577          54368          22108
   2948.00000000          31021          35431          15855            725
   2952.00000000          21402          33748         -89127         -64696
   2956.00000000         -42278         -13600          -3102         -49620
   2960.00000000         -55110          56113         -44002         -47657
   2964.00000000          33287         -34475          -1851          17052
   2968.00000000        -100104         -22049          36279          26531
   2972.00000000         -52985          39544         -28641         -69937
   2976.00000000         -29698          28969          40689         -41566
   2980.00000000          38277          48724         -15049         -40790
   2984.00000000         -27328         -90245          68221          29003
   2988.00000000          61777           4039         -27926          -7473
   2992.00000000         -60579         -17993          43460         -28286
   2996.00000000         -23574         -89252          30112          85104
   3000.00000000          39734          23923          -4961          15676
   3004.00000000         -55164         -40919         -42751           4162
   3008.00000000         -80091         -41399         -17281        -140700
   3012.00000000         -27609          19837          35822          54108
   3016.00000000         -89768         -38074         -57621          55694
   3020.00000000          34729         -34744         -11282         -37522
   3024.00000000           7592           5694         -23939         -49308
   3028.00000000           5075         -16290        -102110         -38347
   3032.00000000          11633         -26134         -78694          25868
   3036.00000000          -6026          23261          55729           2844
   3040.00000000          -8098         -51626          19430         -39355
   3044.00000000         -68902          82532         -16141        -127375
   3048.00000000         -31610          37337          29824          50603
   3052.00000000          15956          17026          35709          59780
   3056.00000000         -28200          80853         -26555          28545
   3060.00000000          71645         -23208         -55095          -5874
   3064.00000000          19520         -16673         -16829        -144178
   3068.00000000         -23291         -65054          12315         -10060
   3072.00000000         -43330          57557         -75893         -43940
   3076.00000000         -22300         -33651         -63157           7991
   3080.00000000          -1984         -33303          28187          10341
   3084.00000000          10364         -40629         -63232          -4243
   3088.00000000         -58691          -4074         -54499         -10902
   3092.00000000          29047          50789         -26808          30972
   3096.00000000          20123          49245          -1611         -31787
   3100.00000000          43492          96210          24621          31205
   3104.00000000          54307           6526          24887         -37330
   3108.00000000          53266         -35925         -15554         -24916
   3112.00000000          32350         -72358          13837          -2898
   3116.00000000         -29636          62737          88114         -66692
   3120.00000000          91806         -28990          18589         -54665
   3124.00000000         -39396         -41189          51685          42126
   3128.00000000          31767         -62318           8478          -1134
   3132.00000000          33841         -34623          35744          26405
   3136.00000000         -96610         -58294         -54171          -9794
   3140.00000000         -44344         -48533         -63617         -10871
   3144.00000000         -29312          16361         -37512          19817
   3148.00000000         -33032         -48514          -4705          -7670
   3152.00000000         -18926         -70129         -19781         -22041
   3156.00000000          33013          25583          35562          39111
   3160.00000000          45698         -64678         -40113          16567
   3164.00000000         158626          34227          25947          -7275
   3168.00000000          71379          -7174           1022          -8394
   3172.00000000          18970           4173         -79818          24166
   3176.00000000          35253          47689         -29114         -76240
   3180.00000000          -3795         -66745         -48839         -35120
   3184.00000000          34405          32119          42605          19196
   3188.00000000          17642         -57888          37994          -4853
   3192.00000000         -37935          -2169         -60556          -5328
   3196.00000000         -89810            228          11859            -36
   3200.00000000         -84638         -52289          -9666         -19213
   3204.00000000          17184         -21046          27175         105114
   3208.00000000           2354          40749          62394          70007
   3212.00000000         -39360          68566          11333         -26086
   3216.00000000         -39743          24129         -52293         -39775
   3220.00000000          16580          71018         100048          16023
   3224.00000000         -18343          11958          25865          12635
   3228.00000000          53574          49830            176         -55253
   3232.00000000         -23541          50944         -16485          29865
   3236.00000000          15920          26225          -9189         -15644
   3240.00000000          -3382          -1870         -28763          36218
   3244.00000000         -41114         -36354          38913          40750
   3248.00000000          10238          45290          -7017         -39850
   3252.00000000          42759         -70086          11248         -93230
   3256.00000000          26900           2657         -32806         -23498
   3260.00000000          33565          -8866          -3296          14320
   3264.00000000         -53596         -67023          32065          28663
   3268.00000000          43224           8333           1066          10016
   3272.00000000          33026         -32989         -29832          50316
   3276.00000000         -30590         -11715         -15404         -34559
   3280.00000000         -15978         -24836          21532          34084
   3284.00000000          -3272           -365          24310          32099
   3288.00000000         -41440          17204         -40636          36135
   3292.00000000         -31446        -105748          15605         -57505
   3296.00000000         -17340          -4690         -43933          -4165
   3300.00000000           3793           3577         -13822         -38959
   3304.00000000           9171         -45986          21850         -10667
   3308.00000000         -40547         -22618           8138          54358
   3312.00000000          -7338         -15179         -26280          28083
   3316.00000000         -29228         -58065          43523           1152
   3320.00000000         -18517         -36078          19301          39033
   3324.00000000          30657         -54117          31681          71003
   3328.00000000          47962         -59748         -61880           9744
   3332.00000000          47701          11854           -778         -76436
   3336.00000000          45630         -33037         -73364          20088
   3340.00000000         -44293          23883          13738         -76595
   3344.00000000          25172         -27257         -26281          33333
   3348.00000000         -68601         -23815          -3544         -12185
   3352.00000000          60106         -39610          37191          -1956
   3356.00000000          49160          11527         -33587         -16433
   3360.00000000         -14848          14049          33888          60543
   3364.00000000         -18158         -18850            -51         -41727
   3368.00000000          23802          55036         -31663          -4009
   3372.00000000         -22788         -28961           5813           -394
   3376.00000000           9077           4185           9563          -9758
   3380.00000000          33160          26126         -19444          -1022
   3384.00000000          10056          13462          34636         -31761
   3388.00000000          24500         -27898          24730         -11752
   3392.00000000         -14464           -652         -24994          -1638
   3396.00000000         -15974          -7429          15431         -43651
   3400.00000000         -39970           4423         -45572          -7589
   3404.00000000          20568          30530          57256          37074
   3408.00000000         -25865         -22092          -8578         -56329
   3412.00000000         -34480         -22477         -20167          -7073
   3416.00000000          21342           5575          63640            494
   3420.00000000          58327          23928          18852           1271
   3424.00000000          18613         -34717          70172           7628
   3428.00000000          -8119         -56278          -2215           2649
   3432.00000000         -19715          -4331          57631          -7423
   3436.00000000          14255         -71682          -9966          32660
   3440.00000000         -12349           5141          35095          19232
   3444.00000000          -3907          61037          -4110          11051
   3448.00000000          25831          14532         -52745          -9860
   3452.00000000         -26615          25434          -5583          12209
   3456.00000000         -11323           7717         -45031          -3555
   3460.00000000         -70675         -10062           8635           3714
   3464.00000000          28650         -24295         -10210         -13468
   3468.00000000           6701          10815           3724           5790
   3472.00000000          -1346          19350           7982         -23303
   3476.00000000           6704          14446         -32545         -12704
   3480.00000000         -18466         -10560           2184          20789
   3484.00000000         -28989         -22209         -39532           8112
   3488.00000000            323          20671          19105         -12348
   3492.00000000          18786          -7204         -10515           5811
   3496.00000000         -52946          43478         -27155         -43082
   3500.00000000          55445          -6434           1366         -25425
   3504.00000000           8940          -2171         -33841         -25276
   3508.00000000          -5758           5108         -74614          35416
   3512.00000000         -13444         -18602         -52891          23646
   3516.00000000          12230           3397         -13994          29243
   3520.00000000          -8583           9377         -19185         -13626
   3524.00000000           7190          34223          -5731          17882
   3528.00000000         -20125         -25026          11985           9764
   3532.00000000          14904          13318           4906            565
   3536.00000000         -16285         -17514         -13780         -20207
   3540.00000000          25229           4818           6199          -2134
   3544.00000000          17160          -6076           6491          13264
   3548.00000000         -16580           5821          -1670           6136
   3552.00000000           9591          -6700         -13441          -5015
   3556.00000000         -14643          11290          20699          -5093
   3560.00000000           3454         -19386         -64134         -19907
   3564.00000000           2774          -4712         -15025          21411
   3568.00000000         -31077         -19475          10190           8201
   3572.00000000          15194         -19079          -5501           -291
   3576.00000000         -32791         -22937         -34403         -12997
   3580.00000000         -30041         -20505         -32332           4062
   3584.00000000          11566          -5858         -19348         -23975
   3588.00000000           4142         -26217         -14058          21266
   3592.00000000         -15922         -42895         -56055          35018
   3596.00000000         -13101          12289           8264          -3957
   3600.00000000          11669         -14487         -35771          30050
   3604.00000000         -43337         -14641         -11909          -3910
   3608.00000000         -44626          27745          -5385          23301
   3612.00000000          20159          17438          12708         -29968
   3616.00000000          -5904         -15817         -11508          37289
   3620.00000000         -66540         -20528          -8593         -37035
   3624.00000000           3649          56040           1632          -9404
   3628.00000000           3032          43833         -14699         -10615
   3632.00000000           6890         -21793           4303          29079
   3636.00000000         -28756           2871          20043          10868
   3640.00000000         -14065         -23026          -2198           6354
   3644.00000000         -12783         -25493           3107            884
   3648.00000000          28303          -8958          -4725          -6528
   3652.00000000           4748          -2774         -26080          16832
   3656.00000000          19895         -12560          28668         -23536
   3660.00000000          -7836          28399          18753          39088
   3664.00000000         -39824         -26467          20413         -16976
   3668.00000000          12765         -29067         -31838          15827
   3672.00000000         -32329         -26309          -2749          -3072
   3676.00000000           1944          -9068         -12627           7187
   3680.00000000          17002          25652          16640          39818
   3684.00000000           8228          30969         -21267         -24378
   3688.00000000           8724         -31744         -34742         -11785
   3692.00000000         -28510            267         -19630         -36047
   3696.00000000           4938          29836         -20553           6066
   3700.00000000           5439          -6947          -2461          -5228
   3704.00000000           5738           8830          26268         -24917
   3708.00000000         -23970         -35420           9013          21313
   3712.00000000          11458          -9856           7178          31905
   3716.00000000         -38848          31246          16525           1620
   3720.00000000          15503          37065          -2830           4188
   3724.00000000         -29027          -8099           4918          20448
   3728.00000000         -13972           1604         -33033         -34104
   3732.00000000          11562         -26104          -1513         -28493
   3736.00000000          19680           9551           8014          -3843
   3740.00000000          41973         -24274         -17304         -17726
   3744.00000000          25635         -24246         -19874          13696
   3748.00000000           2163         -18072           3435          -5349
   3752.00000000         -12426          -1332          -2967           7196
   3756.00000000         -19603          -9242          12419          10441
   3760.00000000         -21626          19327            -20          -4968
   3764.00000000          -5518         -21910         -20043          -4872
   3768.00000000          -7515          -9357          -1517          42301
   3772.00000000          27263          26461           1984         -11354
   3776.00000000          14524          20271         -45153         -16955
   3780.00000000          23340          14250            -61           5735
   3784.00000000         -25593         -26214           -117         -23096
   3788.00000000          14289          32582         -14088           9615
   3792.00000000         -22697          14506         -26205           7875
   3796.00000000         -10577          35745          15028           1753
   3800.00000000          -7843         -19858           2083          21447
   3804.00000000         -24005         -20475          -1969          10356
   3808.00000000         -33407          17279           5299         -27461
   3812.00000000          10682         -29359           7137          27734
   3816.00000000          32764         -12366          11025         -16636
   3820.00000000          24660         -20302         -20876         -25489
   3824.00000000          -7073          14803          22639         -17880
   3828.00000000         -10082          36637          -5969          10885
   3832.00000000          16718          10699           1085          12095
   3836.00000000          30618          18016          32181         -29761
   3840.00000000         -41624          -3309         -21185          -2424
   3844.00000000           5864           2326         -21151           6799
   3848.00000000           9590         -15753         -11464         -19748
   3852.00000000          19092         -22556          11929          27080
   3856.00000000         -15417          -9177          25980          31110
   3860.00000000          24579           9908          -7707         -16228
   3864.00000000           -727          13431          -5027         -18233
   3868.00000000           1100          -5929          16185           -375
   3872.00000000           7734           6168           -863          -3090
   3876.00000000          -5137           3196           3479          13473
   3880.00000000          28673         -26245          -5356          16979
   3884.00000000          -3623          15778          14032          37041
   3888.00000000          13381          50283           3121          17003
   3892.00000000          -5187         -14048           3297         -17787
   3896.00000000           7336         -26022          11683           1720
   3900.00000000         -17224          41203           -154           8763
   3904.00000000           8830           7605           1624          29392
   3908.00000000          -2345          -9230          -9854         -11940
   3912.00000000           7106           3975         -11804           2381
   3916.00000000          -9816           4696         -33846          18598
   3920.00000000          15448           4077          15866         -29469
   3924.00000000          25289          26354           8230          14033
   3928.00000000          10614           1356          -2510          12817
   3932.00000000         -13656           5451          -3616          24036
   3936.00000000           7904         -21046         -16525          10527
   3940.00000000          13288         -12293          -6423           5110
   3944.00000000          -3610           -675         -33383          19597
   3948.00000000         -18063          26955          -2278            798
   3952.00000000          12375         -27430         -10888         -21173
   3956.00000000         -22409          14234             -8          24180
   3960.00000000          -3366           4840          18672          -2511
   3964.00000000         -10080         -19990         -11552         -19088
   3968.00000000          31052          34081          -4465         -18477
   3972.00000000           5913           2722         -13766           3078
   3976.00000000          -9545          -1339          16833         -10213
   3980.00000000          10616          -6866           1860          15030
   3984.00000000           7505         -18408          20155          -4697
   3988.00000000          -6569          -3985          -7859           -719
   3992.00000000         -23950          23559          -8433          -6692
   3996.00000000           2829          -8158           7919          13277
   4000.00000000          -5471          -5160          -9932          21899
   4004.00000000          -8315           6303          -3340          14264
   4008.00000000           8138          10919           5333          16798
   4012.00000000           9614          27747          16304            418
   4016.00000000         -14534           7083         -23185           7525
   4020.00000000           3078          25734          -6509           1802
   4024.00000000          36141         -20062          -8811          -2647
   4028.00000000           1504           1021          22000         -22991
   4032.00000000          13091          -3885          -5601          10365
   4036.00000000           8673          -8731            547           4611
   4040.00000000          -1263          16225         -13903         -20449
   4044.00000000           6161           5112         -16511            878
   4048.00000000          -2950           2741           3012         -11484
   4052.00000000           -341            342         -19115           2680
   4056.00000000         -20578          -7363         -19865           9648
   4060.00000000           5646          -4187          -2682           4937
   4064.00000000           5216         -16024          -3865         -14806
   4068.00000000         -13093          -7457         -24858           9742
   4072.00000000         -17598           5236          -6646           8430
   4076.00000000          13896         -16835          -7898           6548
   4080.00000000          10143          -6586          10337          10032
   4084.00000000          10969         -16952         -12442         -15263
   4088.00000000           7167          -4663          25189         -17539
   4092.00000000           5447           4951            363          -6593
   4096.00000000           -908          -6287         -15680          -6235
   4100.00000000           1436          14531          -9457           1311
   4104.00000000          -7866          -7134          -4055           2316
   4108.00000000          -2510           1746           1018          27407
   4112.00000000         -24757           3179           8070            253
   4116.00000000         -18542           3935           8259          -1792
   4120.00000000          -3913         -14929           6262          -3786
   4124.00000000           3964           9481           3102          -5174
   4128.00000000          -1815          -7806          -9593           -165
   4132.00000000           8325           6128           4956           7979
   4136.00000000          -4201           4077         -12881          -5251
   4140.00000000          -7143           7755           1440           8784
   4144.00000000          -4941           4088          -3552           -346
   4148.00000000          -2846          13163          11624          -2816
   4152.00000000          14404         -23082            -35          17386
   4156.00000000         -11480           9602           4693          11202
   4160.00000000         -20464          -9639          17559           7509
   4164.00000000         -16520           3959          -2800         -16520
   4168.00000000          31757           3017            656          -9220
   4172.00000000          13631           2485          -1731         -10740
   4176.00000000           6060          -4294         -11807          -2534
   4180.00000000           9045          -2241           1244           2214
   4184.00000000          -7987          -3548          -7371          13171
   4188.00000000          -7759           4101          -6095          17465
   4192.00000000         -22128          -5870            -18          -4555
   4196.00000000         -15637          -4400          -4048          10381
   4200.00000000           8190           8917           1727          -1699
   4204.00000000          13037         -17311           6355           1581
   4208.00000000           8383         -14194          -7879          -5182
   4212.00000000         -13702         -24706          -1918         -11036
   4216.00000000          -9515          -5026          -2260          -1286
   4220.00000000           9186          -5921         -10308          21551
   4224.00000000         -15884          -2009          10106         -11152
   4228.00000000          19176           4788           7279           8720
   4232.00000000          -4903          -2281           -462          -6861
   4236.00000000          -8580           7641          -2901          10131
   4240.00000000         -18096          -8960           6838          -8041
   4244.00000000          12543            278           3080          19197
   4248.00000000          -6089         -12628           2697          36027
   4252.00000000           8467           8577          -1993          -7643
   4256.00000000          10457         -18583          -9586          -6171
   4260.00000000           6084           5961            947          11022
   4264.00000000          14967           9105           3660          14068
   4268.00000000           4755          -3518           1956          10065
   4272.00000000          -1740         -13917          15244          -6700
   4276.00000000         -16680          -1865          15174          13988
   4280.00000000          -9791          11558         -10564           9368
   4284.00000000          -4568          -7832         -12171            949
   4288.00000000         -12066           2782          11027           -514
   4292.00000000          -4557         -11039           4986            303
   4296.00000000           3096         -10232           -131          -3863
   4300.00000000          -1558           4148           9490          -3364
   4304.00000000           3055         -10785           2809          12507
   4308.00000000          -5579          -3952          10308           -426
   4312.00000000          -7760          -3692          -1249           1261
   4316.00000000         -16613         -11577           8088         -12737
   4320.00000000           5330            756            986          13366
   4324.00000000           8675          -2673          -2490           7366
   4328.00000000         -19984           5881           9717          -4952
   4332.00000000           5392         -10569           5275          16420
   4336.00000000           1687           -221           3069          -7376
   4340.00000000          11684          21400           9975          -2019
   4344.00000000          -1532          -6081         -13491          10231
   4348.00000000         -15302          -5502           8500           8151
   4352.00000000          -3611         -14019          -4667           1375
   4356.00000000           7324           3233           2038          -6736
   4360.00000000         -11769          13226           7393           2412
   4364.00000000          -2526          -6490          -3704          18118
   4368.00000000            806         -12487          -2241           8964
   4372.00000000           8957          -3690          -5014           3170
   4376.00000000           -173           2042            576          -4814
   4380.00000000          -5487           -618           1192          -8500
   4384.00000000          -9756           1339           4007           -592
   4388.00000000          -1922          -6316           9242           1745
   4392.00000000          -8141            183          -6700          -2395
   4396.00000000          -1501          -2725         -10777          -6172
   4400.00000000           5063          -2494          -8845           2714
   4404.00000000          -8559           4176           9033          -1798
   4408.00000000          -2440          -5927          -6532          10561
   4412.00000000            495          -7375          -3837           4041
   4416.00000000           3063           6160           7063           -147
   4420.00000000           2704           8106          -1919          -2051
   4424.00000000            -46          -4067          -2983           5105
   4428.00000000           7270           -631           4081           2464
   4432.00000000          -5496          -8590           2331          -2016
   4436.00000000          -6216           4358         -11813           2495
   4440.00000000         -10396         -20759            -50           8112
   4444.00000000           5919           4078          17772            875
   4448.00000000          -9761            983          -5602           -514
   4452.00000000          -9729          -5844          11320          -4369
   4456.00000000           4851         -19243          11769          -5001
   4460.00000000           1857           3990           4827          -1218
   4464.00000000           1087          -9192           1783          12174
   4468.00000000           -492          -3909          -6108           2452
   4472.00000000          -5234           1350           1390          -5292
   4476.00000000           1935           9037           -363           4574
   4480.00000000           1228          11325         -19911           5006
   4484.00000000          -5972           2583          20262           2832
   4488.00000000          -3089           3901          -3230           8112
   4492.00000000           7984          17238          -1682          -5067
   4496.00000000          -2068           3385         -10181          -4088
   4500.00000000          -3444           4171         -12699          -1256
   4504.00000000           -518           -572          -3788          -5100
   4508.00000000          -7319          -7564          -2594          -6951
   4512.00000000           5674           -965          -3801           2231
   4516.00000000           2893          -3384          -3709           4877
   4520.00000000           2312           -768           1073          -4594
   4524.00000000          -3694           4423            197            377
   4528.00000000           6841          -6973           2242          -3230
   4532.00000000          -8289          -5483           8729          -2642
   4536.00000000           8157           8026           4367          -2254
   4540.00000000          -2866          11581          -6417          13192
   4544.00000000           2238           3336          -2625         -14824
   4548.00000000          -3277           1443            463           7773
   4552.00000000           5213           4581           1125           5867
   4556.00000000           5560           2220           4317          -1866
   4560.00000000          -5997            805           3348          12764
   4564.00000000          13368           7025          -7613           6694
   4568.00000000          -6908          -5431          -2668           6834
   4572.00000000           -768           1487         -12136           2584
   4576.00000000           9735          15024          -9180          -1977
   4580.00000000          -9862           4634           3097           2864
   4584.00000000            136          -2267            887           -230
   4588.00000000          -2197          -3819           -884           6765
   4592.00000000          -3691           4378           2984           3099
   4596.00000000           3010          -3988           3084          -4388
   4600.00000000           7231           4621           8412           3046
   4604.00000000          -3868           -860           -473          -1126
   4608.00000000           7704           4578           5510         -10564
   4612.00000000            753           2578           5613          -1424
   4616.00000000           8571          -2948          -4642           4701
   4620.00000000          -1026           5576          10495           1523
   4624.00000000           7950          -5214         -17415           5093
   4628.00000000          -2032          -6454           2743           -964
   4632.00000000          -6670          -4276          -5168           -785
   4636.00000000           4925          -2153          -3097           4167
   4640.00000000          -6056           5425          -2271          -6719
   4644.00000000          -2529            213           -964         -11746
   4648.00000000           -622          -8364          -8908          -1790
   4652.00000000           -723           9847          -3468         -12148
   4656.00000000           2211           8900          12291           -770
   4660.00000000          -1414          -2979           4386          -6581
   4664.00000000           6476           -485          -2286           1047
   4668.00000000         -12210          -9741            273           7282
   4672.00000000           5389          -7866          -5984           5925
   4676.00000000         -10229           4871          -4593            100
   4680.00000000           4943           2646           5361           9868
   4684.00000000            974            264           1176          -1186
   4688.00000000           3258          -8174          -2545           -935
   4692.00000000           2233         -12787           -372          -2658
   4696.00000000           6967           -833           8515           1059
   4700.00000000         -10357           3932           1954           1121
   4704.00000000            -73           9653          -8059           4091
   4708.00000000          -3662            786         -15342           1624
   4712.00000000          -3740           6037           5688           6027
   4716.00000000           2768            337           -438          -1254
   4720.00000000           2089           5228           3641          -1276
   4724.00000000          -8705           1694          -4564           6369
   4728.00000000           9873           3278           4352          13416
   4732.00000000           -611          -9339           -426           2359
   4736.00000000           -296           3133           -991           3597
   4740.00000000           5023          -6181            852           8880
   4744.00000000          -5550            967           5023           9202
   4748.00000000          10087          -3032           5455          -7136
   4752.00000000          -1453          -1096          -8172            820
   4756.00000000          -1190          -6557           -975           1717
   4760.00000000           5603          -3525           4973          -1905
   4764.00000000          -1734           2593          -2934          -6054
   4768.00000000           8756         -14712          -7542           1859
   4772.00000000           3807           -932          -4712          -1972
   4776.00000000           4954          -2732          -6179           1592
   4780.00000000           9801           5736          -1409          -1907
   4784.00000000          -9364           7730           -964          -4372
   4788.00000000          -1486           1779          -1269           -383
   4792.00000000          -7998           4311           7020          -6307
   4796.00000000          -5213           4059          -1136          -7634
   4800.00000000          -5927          -1859           -890            936
   4804.00000000           3148          -1999           8001          -2370
   4808.00000000          -3680          -2790          -1261          -2387
   4812.00000000          -3014          -6282           -636             50
   4816.00000000           1702            145           4458           3142
   4820.00000000          -1882          -8075           9672         -10297
   4824.00000000            -18           1282          -2844           -986
   4828.00000000          -7612          -4746           6403          -3808
   4832.00000000          -6026           5932          -7473           2768
   4836.00000000          -1087           5367           1977          -3571
   4840.00000000           1614          -6176          -3584           3522
   4844.00000000          -2733           2213          -2052          -6550
   4848.00000000          -1698            777          -2517          -2380
   4852.00000000           1194            667          -4673          -3664
   4856.00000000           1205           2888          -3829          -5697
   4860.00000000           2379          -6541           8406           -135
   4864.00000000          -1447          -3062          -3693         -12902
   4868.00000000          -6030          -3200           7668          -3115
   4872.00000000          -5535           3682          -5707          -2902
   4876.00000000           1750            433           -501           2604
   4880.00000000           5745          -4800          -6281          -2913
   4884.00000000           2502             53          -2803            273
   4888.00000000            156           5298          -1512           3817
   4892.00000000            173          11171            120           -830
   4896.00000000           6597          -5921           7701           4850
   4900.00000000           5824          -5287          -2512           4185
   4904.00000000          -1991          -2966           -641          -3133
   4908.00000000             91          -5694           8407          -1791
   4912.00000000           1392          -3131           4054           3778
   4916.00000000           2039          -1284           1893           4745
   4920.00000000          -2682            979          -3746           -989
   4924.00000000           1851            917          -1048            668
   4928.00000000          -1444           -369           5158          -2756
   4932.00000000          -1051           3618          -1961          -1920
   4936.00000000          -2057            320          -1252           5723
   4940.00000000          -5432          -5481           2677           2999
   4944.00000000           1099          -3202          -3288          -2013
   4948.00000000          -9783           5903          -1396           -904
   4952.00000000           2374          -3312            456           3306
   4956.00000000          -8963            860          -3010            527
   4960.00000000           1757           4020          -4464           5549
   4964.00000000          -2217          -3433           -345            421
   4968.00000000          -3720           3954           3763           5656
   4972.00000000           -505           -770          -3924          -1140
   4976.00000000           4236          -4705          -2549          -3761
   4980.00000000           1158          -2198           2369           -431
   4984.00000000            120          -1457            -23          -5343
   4988.00000000           -957           1973           -199           1680
   4992.00000000           3590            383          -1594           2379
   4996.00000000           4283          -2483          -2317           1128
   5000.00000000           -719          -1722          -2914           2483
   5004.00000000            -96           -832          -1424           2816
   5008.00000000           5674           1305           4167          -5849
   5012.00000000           1887           2115          -2893          -7283
   5016.00000000           3072           4321          -5990            465
   5020.00000000           5340           3227           -573           1845
   5024.00000000          -1877            355           3369           1734
   5028.00000000           7211          -3890           -443           1754
   5032.00000000           2966           1201           4573          -1890
   5036.00000000           4079          -2803           -745          -5764
   5040.00000000          -3533          -6248           1597          -2200
   5044.00000000          -1369          -1867           -371          -5231
   5048.00000000          -3235            209            400           3450
   5052.00000000          -2396           -111          -1991          -1999
   5056.00000000          -1769           -431           5733          -2726
   5060.00000000           -513           1704           2684          -5334
   5064.00000000           6673           1923          -4225            981
   5068.00000000          -2141           3241           1270            839
   5072.00000000           -714           2488           3893           1439
   5076.00000000           1199          -6196           3929          -6330
   5080.00000000          -2720           -131           7723          -4719
   5084.00000000          -1036          -3504           2397          -2365
   5088.00000000          -1813           -407          -2455           -387
   5092.00000000          -2607            530           -803          -2588
   5096.00000000           -939            -69           -896           4580
   5100.00000000            437           3525           2135          -3248
   5104.00000000           8240          -3156           2181          -4234
   5108.00000000           3715            238             25           3059
   5112.00000000           7895           1106           3413             36
   5116.00000000           2337          -3032            -11          -1189
   5120.00000000          -4005          -4457           4606           2353
   5124.00000000           2934          -2688          -6476           -806
   5128.00000000           3011          -3203           -390          -3987
   5132.00000000           -315           4542          -4194          -1199
   5136.00000000          -6879          -1026           3020            245
   5140.00000000           -282           2058          -1149          -4657
   5144.00000000           -454            717            315            516
   5148.00000000           -896           4681           4456          -5560
   5152.00000000            495          -2485          -5619           6354
   5156.00000000           2323            673           1491           1014
   5160.00000000           2348          -6140           4254           1250
   5164.00000000          -7151            136           -365          -2565
   5168.00000000          -6221          -4859          -1567           5607
   5172.00000000           -157           1055           1518            764
   5176.00000000           5803            450           1031          -2100
   5180.00000000           -293           -845             61           2117
   5184.00000000           4214           5565          -2609           -224
   5188.00000000          -1782          -6231            678           -112
   5192.00000000          -3580            918           2223          -2960
   5196.00000000          -2128          -1086           2953            787
   5200.00000000           3414           1467           8919           2800
   5204.00000000            -86            570           -106           6707
   5208.00000000          -1582           1807           6918          -1167
   5212.00000000           4121          -1862          -1818           -381
   5216.00000000          -2094           1101            775          -1860
   5220.00000000          -1078          -2028           1462           3964
   5224.00000000            774           2838          -1602           -261
   5228.00000000           -110           6852            251           1413
   5232.00000000          -7778          -3018           -147           1288
   5236.00000000          -2048           3833           2684          -2896
   5240.00000000           1753          -2658            362           2367
   5244.00000000          -1806          -2277          -4571           2747
   5248.00000000           2975           2118           4889          -1408
   5252.00000000           4998           1227          -1277           1891
   5256.00000000           2318           3984           -601           2566
   5260.00000000           -122          -4025          -1016             42
   5264.00000000           1160           1222           -871          -1696
   5268.00000000           1679           1951           2400           -738
   5272.00000000            848          -3539          -2962           -193
   5276.00000000          -1799           1117            126           2341
   5280.00000000           2155             73           5149           -468
   5284.00000000          -1945           -498           1230           -190
   5288.00000000           -942          -3807           2687            659
   5292.00000000          -3233          -1211            -52           2047
   5296.00000000          -1546           1741           -226            447
   5300.00000000           1991          -2268            211           -387
   5304.00000000          -2194           1582            -27          -3848
   5308.00000000           1869          -1474           -276           -436
   5312.00000000          -3130           1556            949           1503
   5316.00000000           5533           -699           -666            157
   5320.00000000           1759           4066           3545           2726
   5324.00000000           1667          -2857           -930           2627
   5328.00000000           4003            895          -2085            352
   5332.00000000            614          -2461           -212             24
   5336.00000000          -3019           2708            831          -3394
   5340.00000000            112          -1356           -272            672
   5344.00000000           6661            630          -2192           3908
   5348.00000000           3654           4821           -528           3347
   5352.00000000            694          -1816            405          -3001
   5356.00000000            658          -1079          -1709          -3782
   5360.00000000           1971           1235           3438           -582
   5364.00000000           3532          -2242           5555           4743
   5368.00000000           1697            -45          -3960            -29
   5372.00000000           3021           1622           1307           -788
   5376.00000000          -5297           2198          -1546            333
   5380.00000000          -2418           2309           2733           2899
   5384.00000000           1787          -2755           -608          -2119
   5388.00000000           1817          -1848          -1296           2880
   5392.00000000           -537           2050           -910            589
   5396.00000000            833           -231          -1055           2310
   5400.00000000          -1026          -1007            695           2261
   5404.00000000              4            -91           -803           3170
   5408.00000000           -439            144          -2699             86
   5412.00000000          -1255          -2617           1784          -3259
   5416.00000000           3049          -1742          -3495           1977
   5420.00000000          -4088           -988           -769            869
   5424.00000000           -771          -1464            477          -2244
   5428.00000000            228             57           2390           1872
   5432.00000000           -989          -1358           -783          -2442
   5436.00000000           1000          -3908           1355           -863
   5440.00000000           1051            318           2455           -337
   5444.00000000          -1207           2696          -1271           1598
   5448.00000000           -564           -624          -1558          -1741
   5452.00000000           -255           -564           1954            983
   5456.00000000          -1366           2029           -333          -3488
   5460.00000000           3073           -436           3442          -1816
   5464.00000000           1196          -2861            589           -851
   5468.00000000           -788           1530             68           1479
   5472.00000000          -1449           1600          -2022            770
   5476.00000000            165            535            515          -1463
   5480.00000000            522          -1330           1604            -70
   5484.00000000          -2525          -1400           -112           -996
   5488.00000000           -473          -1017           1386           1536
   5492.00000000           -269            214           1389           3041
   5496.00000000            309            795          -4103             21
   5500.00000000          -2287           2633            921          -2979
   5504.00000000           3761          -2413            886          -1881
   5508.00000000            362            309           -937           1867
   5512.00000000          -1493           1898          -1775           1031
   5516.00000000           2074           1039            928           1769
   5520.00000000           1304           2495          -1127          -1812
   5524.00000000           -431           2266           -361          -2083
   5528.00000000           -899            919           1345          -2334
   5532.00000000           -281           1798            773            990
   5536.00000000           3032          -2054           -395            233
   5540.00000000           2682             23           -354          -1173
   5544.00000000          -1523            890            106           2223
   5548.00000000           -756           2890           -562           -756
   5552.00000000          -1140          -1202           -388           2456
   5556.00000000           -379          -2494           2927            339
   5560.00000000           1339            569          -1979            -32
   5564.00000000            270           -537           -276          -4034
   5568.00000000           1613           3317           -377          -2092
   5572.00000000          -1626          -1162          -2342           1110
   5576.00000000          -1086           2398            749           1675
   5580.00000000          -1132          -2969           2920            443
   5584.00000000           -118            232            682          -1435
   5588.00000000             -2           1060            535            543
   5592.00000000           1049            142           -438           1174
   5596.00000000           3316            825           -274           4136
   5600.00000000            293            469          -1992           1868
   5604.00000000            853            760          -1122           -386
   5608.00000000           1512           3616           1284           -550
   5612.00000000           2172           2178           2024           1186
   5616.00000000            730           -594          -1576           -225
   5620.00000000           2466           2408           1324          -2273
   5624.00000000            678          -1299           1748            410
   5628.00000000            689            -59           -794           1730
   5632.00000000            978           1524            529            663
   5636.00000000           -477            471              5           -329
   5640.00000000           3667            930           -357             -0
   5644.00000000            721          -1498           1636           -847
   5648.00000000          -1014            559            391          -1627
   5652.00000000            534            -25           2231           1188
   5656.00000000           -318           -662           -269          -2781
   5660.00000000           1838            907          -3031            349
   5664.00000000          -1721           3336           1923            199
   5668.00000000           -617           -349          -1255            137
   5672.00000000           -977          -1406           -514           1063
   5676.00000000            766            202            523          -2611
   5680.00000000           -178          -1050           -524           2212
   5684.00000000             82            794          -2621          -1148
   5688.00000000            324           3105           2135            438
   5692.00000000            609           2105           -931            713
   5696.00000000            536            -61           -568           1260
   5700.00000000            500            840           1860           2265
   5704.00000000          -1027           -403            131            650
   5708.00000000            215           2120           -246           2625
   5712.00000000           1921          -2704          -2407           -372
   5716.00000000           1065           -898           2249           1461
   5720.00000000            624            891           -618          -1680
   5724.00000000           -792          -1798          -1437           1917
   5728.00000000           1591           -872           1415            113
   5732.00000000            -49            534            -33          -2231
   5736.00000000           1244           -750            624           -535
   5740.00000000           1501            778           -353           -714
   5744.00000000            191          -3546           -600          -1220
   5748.00000000            -52            157            126           1057
   5752.00000000          -2022            354            623          -1454
   5756.00000000            744           1206          -1033           -743
   5760.00000000           -592          -1480           1111           3112
   5764.00000000           -456           1649            753           2167
   5768.00000000          -1189           2639             60           1668
   5772.00000000            982            256           -942            821
   5776.00000000           -818          -1432           -545            -84
   5780.00000000            -53           -193            246            -68
   5784.00000000           1979          -1621          -1782           -556
   5788.00000000           -492            814          -1122           1174
   5792.00000000          -1777           1789            895            513
   5796.00000000           1115            692           -897            703
   5800.00000000           1305            230           -151          -1616
   5804.00000000           1779            979           -565             60
   5808.00000000              8            213            -44            852
   5812.00000000           1169          -1136            571           -808
   5816.00000000             31            680           -168           1478
   5820.00000000           1094            454            655            590
   5824.00000000           -446          -1266           1902            357
   5828.00000000            454            -85           1968           1288
   5832.00000000           -369            797           -554           -989
   5836.00000000            -64             63           -966           -383
   5840.00000000            369            635          -1508            901
   5844.00000000            165          -1019           -168            215
   5848.00000000           1345            669          -1154          -1171
   5852.00000000          -1178           1590            578           2486
   5856.00000000            449            854            405           2368
   5860.00000000           -430           -942           1784           -251
   5864.00000000           -803            398            915           -847
   5868.00000000           1087            529            181           1196
   5872.00000000            -83            -74           -400           1159
   5876.00000000          -1039            284            251            577
   5880.00000000            946          -1616           1361            261
   5884.00000000           -112            -37           1092           -781
   5888.00000000           -258            301           1249           -732
   5892.00000000             92           1073            333           -171
   5896.00000000           1551            164          -1649            300
   5900.00000000           -612           1407            776           1160
   5904.00000000             77            295           -520           -657
   5908.00000000            447           -831            385            -29
   5912.00000000           1231           1588            504           -878
   5916.00000000             58           1754          -1426           -229
   5920.00000000            283            323          -1624           -253
   5924.00000000           1312            132           1889          -1068
   5928.00000000          -1047            369            424            183
   5932.00000000            -77            369           1043           -920
   5936.00000000           -954           1225           1009          -1291
   5940.00000000            905           1067           -426            585
   5944.00000000           -198           1137            -71           -655
   5948.00000000          -1348           1414          -1175           1572
   5952.00000000           -311            -71           -355           1350
   5956.00000000            355            138           1637           -798
   5960.00000000            307           1292           -789          -1327
   5964.00000000           1342            522            300           1567
   5968.00000000          -1359          -1376            888            217
   5972.00000000            627            365           -952            471
   5976.00000000            727          -1056            298             65
   5980.00000000            344           1286            171           -380
   5984.00000000           1349            819           1320           -986
   5988.00000000            259           1534           -394           1069
   5992.00000000            415           -585           2136            556
   5996.00000000           -799          -1138           -275            947
   6000.00000000           -356           1095             53            975
   6004.00000000           -822            166          -1195          -1040
   6008.00000000          -1024           1360            456           -184
   6012.00000000            194            129            190           -201
   6016.00000000            -14          -1687          -1319           -585
   6020.00000000           -298            837           -813           1535
   6024.00000000           1125           1530            195           1123
   6028.00000000            167          -2010          -1530            616
   6032.00000000           1142           -205           1017          -1405
   6036.00000000           -646            631           -695            140
   6040.00000000           -108          -1143          -1215            425
   6044.00000000          -1368          -1930          -1477            275
   6048.00000000           -295            324           -817            -97
   6052.00000000           1455           1625           -403            675
   6056.00000000            114           -988            212           1723
   6060.00000000            326            -18           -463           -346
   6064.00000000           1013            840           -781            947
   6068.00000000          -1308            659           -656            192
   6072.00000000            714          -1182            215          -1657
   6076.00000000           1404            145             57           -970
   6080.00000000            927            862           1189            194
   6084.00000000             98           -180            151           -529
   6088.00000000          -1999          -1227           1464            442
   6092.00000000            755            938            656            -27
   6096.00000000             -7           -254           -601           1508
   6100.00000000           -656          -1021            869           1095
   6104.00000000           -331            624           -239             58
   6108.00000000           -383            401            271           -425
   6112.00000000           -652           -644            943           1689
   6116.00000000           1367           -142            450           -177
   6120.00000000            103           -769            916            597
   6124.00000000            385            548            238           -615
   6128.00000000           -396           -241             89          -1189
   6132.00000000           -750           -448           -862           -195
   6136.00000000            397           -719           -532           -291
   6140.00000000             -6            453           1321            810
   6144.00000000            120              1           -909           -926
   6148.00000000           -775            653            562            341
   6152.00000000          -1210           -412            729           -628
   6156.00000000           -536           -567          -1216            176
   6160.00000000           -784           -629           -695           -760
   6164.00000000          -1296           -394          -1123           1056
   6168.00000000           -957            186          -1593            489
   6172.00000000            965            375           1136          -1079
   6176.00000000            617            848            964            651
   6180.00000000            355            333            406           -442
   6184.00000000             59            -38          -1673           -232
   6188.00000000           1022           -119           -495          -1048
   6192.00000000           -985           -967            447            724
   6196.00000000            101             75           -197           2010
   6200.00000000            307           -167            394           -345
   6204.00000000            556           -307            191             42
   6208.00000000          -1492           -291           -437           -204
   6212.00000000           -769              2             58           1022
   6216.00000000           -591            791             86          -1096
   6220.00000000            310            335           -225            130
   6224.00000000           -821           -631            726           1158
   6228.00000000           -186            306            203           -950
   6232.00000000           -221           -573           -595           -323
   6236.00000000           -170            788            -43           1353
   6240.00000000            326          -1349           1032            166
   6244.00000000            829            329           1025           -330
   6248.00000000            178            448            -50            815
   6252.00000000           -492          -1008           1060            468
   6256.00000000           -279             69           -407            237
   6260.00000000            610           2240             99           -876
   6264.00000000           -181           1002            973            449
   6268.00000000           1525           -238            170            392
   6272.00000000            267            804            288           -772
   6276.00000000            222            394            476           -194
   6280.00000000           -184           -689           -229           -406
   6284.00000000           -544             30           1068           -517
   6288.00000000            -39            325           -789           -139
   6292.00000000           1092           -216           -401            -79
   6296.00000000           1609          -1265           1170           1052
   6300.00000000            144            245            970           -231
   6304.00000000           -715            424           -417           -782
   6308.00000000            883            628           -386           -450
   6312.00000000           1265            965          -1009            184
   6316.00000000           -414            285           -649            760
   6320.00000000            514           -783            288            122
   6324.00000000           -283            424            -41           -359
   6328.00000000          -1194           -401            519            -83
   6332.00000000            364           -285            975            223
   6336.00000000            627            202            595           1108
   6340.00000000           -118            205            149            -94
   6344.00000000            327            400           -484           -561
   6348.00000000            464            858            248           -850
   6352.00000000           -675           -146            537           -470
   6356.00000000           -275           -366           -473            207
   6360.00000000           -640            395            333           -130
   6364.00000000            369            447            -92           -209
   6368.00000000             95            500           -360           -185
   6372.00000000            212           -115            -36           -246
   6376.00000000            431           -430            -85            291
   6380.00000000            234           -792            988           1271
   6384.00000000            138            808           -530           1697
   6388.00000000           -490           -114            823            -38
   6392.00000000            543           -390           -102              6
   6396.00000000            291           -212           -538            622
   6400.00000000            788            479           -392            -97
   6404.00000000           1149           -780           -175            -14
   6408.00000000            292            780            197            746
   6412.00000000            501            435            734           -319
   6416.00000000            336            279           -138           -489
   6420.00000000             41            692            640           -441
   6424.00000000            697            590            134           -116
   6428.00000000            318          -1242            226            187
   6432.00000000           -120            721            -78            446
   6436.00000000            740           -631             74             88
   6440.00000000            356           -124            146           -420
   6444.00000000            556            466           -181           -428
   6448.00000000            141            791           -125            975
   6452.00000000            -19           1230            488           -591
   6456.00000000            704           -834           -228            604
   6460.00000000            -80           -143            326           -308
   6464.00000000           -628            458            306           -241
   6468.00000000            369           1090           -541           -524
   6472.00000000           1089            205            366           -320
   6476.00000000           -198              3           1022             28
   6480.00000000          -1155            813           -323           -277
   6484.00000000            427            601          -1183            467
   6488.00000000           -200            916             51            748
   6492.00000000            455              5            -58            -63
   6496.00000000            437           1352           -551            383
   6500.00000000            107             65            614            575
   6504.00000000            -39           -435           1235           -115
   6508.00000000            932           -365             18           -302
   6512.00000000            271            638             22            611
   6516.00000000           -720            597            309            124
   6520.00000000            774           -224            335           -250
   6524.00000000            323           -532            763           -108
   6528.00000000            171            351           -469           -330
   6532.00000000            764            858           -335            315
   6536.00000000           -336            -34           -256            469
   6540.00000000           -510           -283             16            135
   6544.00000000           -452            144            537           -190
   6548.00000000           -113            -45            363           -553
   6552.00000000            -71            742           -298            -82
   6556.00000000           -806            519           -540             96
   6560.00000000           -168           -241            672           -198
   6564.00000000           -322            479           -517            666
   6568.00000000           -171           -121            -37            178
   6572.00000000            871           1172            112           -327
   6576.00000000             40            865            255             21
   6580.00000000           -259           -124           -239           -414
   6584.00000000            742            779            514             65
   6588.00000000           -160            227             94           -459
   6592.00000000           -194           -712           -459            348
   6596.00000000           -336           -175            -18            398
   6600.00000000            209            222           -124             31
   6604.00000000           -569           -219           -639            478
   6608.00000000           -820            376           -225            501
   6612.00000000           -465            333            245            -15
   6616.00000000           -239            848           -437            217
   6620.00000000            156           -378           -225           -519
   6624.00000000           -374            515             30            718
   6628.00000000           -443            230             73            835
   6632.00000000           -413           -453            264             60
   6636.00000000           -355            551           -396           -239
   6640.00000000           -305           -262            -94            241
   6644.00000000            153            635           -570            -87
   6648.00000000            450            370            383             79
   6652.00000000           -490            -60           -233            301
   6656.00000000             21            101           -151            333
   6660.00000000             12           -367            663            350
   6664.00000000           -499            587            -56           -161
   6668.00000000            266            833             10            204
   6672.00000000            169            170            -37           -162
   6676.00000000             47            500            370           -161
   6680.00000000            677            243           -242            398
   6684.00000000           -504           -477            530           -135
   6688.00000000             38            149              6            -88
   6692.00000000           -145           -313            567           -886
   6696.00000000           -488            651            280             82
   6700.00000000            -27            357            448           -299
   6704.00000000           -244             38            107            391
   6708.00000000             -8            153           -301           -311
   6712.00000000            457           -160            500             29
   6716.00000000            226             11            407           -127
   6720.00000000            244            485           -261           -134
   6724.00000000            115           -260           -284             40
   6728.00000000            313           -501            373           -502
   6732.00000000            319            -49           -145           -330
   6736.00000000           -242             71           -275           -318
   6740.00000000           -198           -160            -81           -553
   6744.00000000           -334           -520             84            -79
   6748.00000000           -341           -177            714           -411
   6752.00000000           -445            181           -224            483
   6756.00000000            565           -246            257            464
   6760.00000000             29            445           -354            -37
   6764.00000000             34           -215           -285            264
   6768.00000000           -430            254            -82            421
   6772.00000000            154            243            252             87
   6776.00000000           -465           -590            -81            -83
   6780.00000000            145             52           -390             86
   6784.00000000            144           -375           -198           -896
   6788.00000000            -63            -69            312           -123
   6792.00000000            301             56           -426            484
   6796.00000000            148            265            210            200
   6800.00000000             72            300             86            598
   6804.00000000            107           -186           -805            -11
   6808.00000000           -382            216            388             52
   6812.00000000           -246           -146           -311            159
   6816.00000000            259            526            -98            373
   6820.00000000            -59            -41            222            -71
   6824.00000000           -368            317            -13            228
   6828.00000000            169            138            -60           -235
   6832.00000000           -125            137           -183            216
   6836.00000000            292            117           -297            -38
   6840.00000000           -269           -145            714             74
   6844.00000000             15           -160            566            385
   6848.00000000             35             64            920           -143
   6852.00000000            220            401            130             41
   6856.00000000            266            335             68              8
   6860.00000000            272            -89            -89            -70
   6864.00000000            265           -105            -24             35
   6868.00000000            -71            312            -61            438
   6872.00000000            404           -185            225            410
   6876.00000000             -6            253            206            146
   6880.00000000            318            183            240           -180
   6884.00000000            184            304            392            -19
   6888.00000000            -72            252            233             12
   6892.00000000             74            -67           -153           -349
   6896.00000000           -451             19            122            117
   6900.00000000            165           -279           -274           -144
   6904.00000000            202            117           -495            -57
   6908.00000000            232            425            169            133
   6912.00000000           -410            251            415           -479
   6916.00000000           -636            751            181            -97
   6920.00000000            284            -66           -548           -296
   6924.00000000             49            387            395           -452
   6928.00000000            -64            270           -567           -280
   6932.00000000           -163             52             87           -340
   6936.00000000            331           -144             96            113
   6940.00000000            -20            284           -177            291
   6944.00000000           -121            -10            481             19
   6948.00000000            262            250           -255           -316
   6952.00000000           -278            363           -416            -40
   6956.00000000           -290           -400            -27            298
   6960.00000000            729             85            414            250
   6964.00000000            303            -42            -73            -64
   6968.00000000            -14             34             38            -20
   6972.00000000           -147            387           -283             -5
   6976.00000000             85            214            -46            162
   6980.00000000            -94            151            232            213
   6984.00000000            -64            164            322              8
   6988.00000000             50            -47             92            159
   6992.00000000            417             25            432            314
   6996.00000000              3            308             95            337
   7000.00000000           -116           -198            229            115
   7004.00000000            -23           -234            -96             39
   7008.00000000            205           -400            -16            248
   7012.00000000              8            -11           -239             38
   7016.00000000            216           -127             10           -241
   7020.00000000             33            105             15            212
   7024.00000000           -142             65            -81              7
   7028.00000000             18           -131            322           -160
   7032.00000000             58           -552            -18            -63
   7036.00000000             82            103            111            -34
   7040.00000000            -39            -30           -129             57
   7044.00000000            117            -33           -303            -69
   7048.00000000            -24            184           -137            210
   7052.00000000            110           -131             14            149
   7056.00000000           -416             80           -252            -45
   7060.00000000             -2            266           -162           -318
   7064.00000000            412            101             78            -58
   7068.00000000            221            361            159           -212
   7072.00000000            119            414            204           -229
   7076.00000000            -99            306           -146            544
   7080.00000000             19           -137             52           -134
   7084.00000000            131           -343            267            218
   7088.00000000            -62            148            -27            234
   7092.00000000            -63            226            -12            129
   7096.00000000             34            172            394           -163
   7100.00000000            243            177           -230            166
   7104.00000000            -90            -73           -108            -67
   7108.00000000             19            174             77            306
   7112.00000000            -17           -185           -119             26
   7116.00000000            253           -243             20             94
   7120.00000000             50            311            -18            322
   7124.00000000             -3            266           -113             88
   7128.00000000            -28            124            196           -181
   7132.00000000           -175            495             34            -47
   7136.00000000             49           -116            315           -167
   7140.00000000             83            403            -71            273
   7144.00000000             18            494            169            354
   7148.00000000             73            181           -179            328
   7152.00000000            169            -14           -284            276
   7156.00000000            389           -334             32           -368
   7160.00000000            168           -186             -4            225
   7164.00000000           -404            -41            -35             33
   7168.00000000            111            -74            -36            -86
   7172.00000000             33              6            288             34
   7176.00000000            208           -139             31            103
   7180.00000000           -252            114            197            306
   7184.00000000            176           -113            226             74
   7188.00000000            221             79           -206            304
   7192.00000000             53             18            378            -34
   7196.00000000           -195            314            521            -69
   7200.00000000            177           -151            -86             25
   7204.00000000             70            215            -55            -42
   7208.00000000           -141           -222            126             65
   7212.00000000           -314             43           -144             92
   7216.00000000            -50           -121            157           -384
   7220.00000000           -225             22           -114           -132
   7224.00000000             38            363           -226            -45
   7228.00000000            299           -365           -198           -351
   7232.00000000             74             74            -71            120
   7236.00000000            -87            334           -146            116
   7240.00000000              3           -153           -398             45
   7244.00000000           -125            355            234           -179
   7248.00000000             64             81              2            -57
   7252.00000000             -4           -163           -338             51
   7256.00000000            159            235            303             54
   7260.00000000            -34           -172           -228              9
   7264.00000000              2            104            216             -6
   7268.00000000            223             77            442            154
   7272.00000000           -105            -75            -91              4
   7276.00000000           -238             54           -134            -14
   7280.00000000            179             40            133            115
   7284.00000000            196            -34           -168           -368
   7288.00000000             80             -1           -146           -107
   7292.00000000           -104            -67             57             96
   7296.00000000             29           -213            -27           -118
   7300.00000000           -195             23             64           -193
   7304.00000000           -109           -154              1           -149
   7308.00000000           -235           -281            361             19
   7312.00000000           -112            165            141             99
   7316.00000000            -24           -162             23            -85
   7320.00000000            -24             85             55             43
   7324.00000000            -84           -189            118            -43
   7328.00000000             63            128           -270           -128
   7332.00000000            297            -52           -206            216
   7336.00000000           -198             54            114             47
   7340.00000000            290            -76             85           -200
   7344.00000000            311            -67             45            225
   7348.00000000             38            -82             34           -144
   7352.00000000            127            185            -19            -71
   7356.00000000           -215            334            146           -102
   7360.00000000            -43             82             61            168
   7364.00000000             51            122           -262            -29
   7368.00000000            155            107           -109             64
   7372.00000000           -128             -2             18            117
   7376.00000000             -9           -159            -29            -42
   7380.00000000            200            -93            100            -69
   7384.00000000            -90              6            -15             18
   7388.00000000           -140           -176            226            318
   7392.00000000            170            -37             11            108
   7396.00000000            112            105           -170           -218
   7400.00000000           -200            189            -84            125
   7404.00000000            -82            229             43           -148
   7408.00000000             55             62             96           -322
   7412.00000000             -5              9            -83            -53
   7416.00000000            -80            117           -210           -185
   7420.00000000           -143             69            142           -163
   7424.00000000              4             62            -69             76
   7428.00000000            -76            111             24             33
   7432.00000000            -75           -185              7            -78
   7436.00000000            169           -119           -256             58
   7440.00000000            -63            -76            -27            -42
   7444.00000000            -54            239           -167            -98
   7448.00000000            113             88           -290            -93
   7452.00000000            -40            -54            236            -75
   7456.00000000             28            136           -173            161
   7460.00000000            166            122            184              2
   7464.00000000            -58            -72            -91            173
   7468.00000000            -17             75           -279            -57
   7472.00000000            167           -143            103            -21
   7476.00000000             15            -13            115           -102
   7480.00000000             49             19           -102           -126
   7484.00000000            264            148             77           -160
   7488.00000000             57            -83             82             21
   7492.00000000            -54             37            204            -81
   7496.00000000             81             50           -190             75
   7500.00000000           -143             24             14            -61
   7504.00000000           -114             97           -204           -205
   7508.00000000            119            -29             -3            -49
   7512.00000000             21            196           -129            -46
   7516.00000000           -134           -151             59            -33
   7520.00000000            213           -135              3           -168
   7524.00000000            127            -49             95             87
   7528.00000000             49             60            330           -276
   7532.00000000           -107            -48           -119            150
   7536.00000000            -41            -86             22           -117
   7540.00000000            149            -37            183           -173
   7544.00000000           -113            276            -70            -68
   7548.00000000            142            -51            -23            -83
   7552.00000000           -109            126            -42            -30
   7556.00000000            -61            -87             54           -145
   7560.00000000            -55             19            107            129
   7564.00000000            157           -154            155            -22
   7568.00000000             22            104           -270            -18
   7572.00000000            106             -7            116             51
   7576.00000000           -237            -79            302           -137
   7580.00000000              9            133            -92            213
   7584.00000000             10           -219            138            132
   7588.00000000            161            -66           -116             82
   7592.00000000            -25             84           -126             12
   7596.00000000             35            166             44             36
   7600.00000000            -73            160            -24             87
   7604.00000000           -282           -150           -102             26
   7608.00000000             31             48             52             63
   7612.00000000            -47            -89            -15           -141
   7616.00000000           -108            244           -108            113
   7620.00000000             70            -22             22            191
   7624.00000000           -184            -84            -12            173
   7628.00000000           -115           -193           -167            152
   7632.00000000             78             85            -41             39
   7636.00000000            -28            -90             95             73
   7640.00000000            -56            263           -199              9
   7644.00000000             21             10             15             50
   7648.00000000            151             85             65            -14
   7652.00000000            258            168            -31             43
   7656.00000000            121             88            -70             50
   7660.00000000            219            -12            314           -122
   7664.00000000             -6             24           -160             60
   7668.00000000           -127            139            184            -94
   7672.00000000             34              6            -99             75
   7676.00000000             23            -46             81             32
   7680.00000000             29            189           -109              6
   7684.00000000             15            174           -116             20
   7688.00000000             95            104           -148            -48
   7692.00000000             43             47             99            111
   7696.00000000            176             70             68             20
   7700.00000000             12            118            -56            -15
   7704.00000000             63            106             26             61
   7708.00000000             57            -22             -5             35
   7712.00000000            145             91             26             -7
   7716.00000000            -61             57            128             -7
   7720.00000000             93            -38            123             57
   7724.00000000             90           -104            -59            174
   7728.00000000             92              1            121            -20
   7732.00000000            -67             -4            118             35
   7736.00000000            -99            132             16             -5
   7740.00000000             40           -128             87            -77
   7744.00000000            -56             61             93             -1
   7748.00000000             11             31              5             43
   7752.00000000             36             11            -10            -50
   7756.00000000            -35             39             93             32
   7760.00000000            145             91             -5           -127
   7764.00000000           -127             12             -5            -10
   7768.00000000            -16             27            -42             -3
   7772.00000000            -71             46             16            113
   7776.00000000            168             57            -33           -134
   7780.00000000            -10             55            115              3
   7784.00000000             56             58            -65           -171
   7788.00000000            -75              5             73             39
   7792.00000000            -41            115             12             25
   7796.00000000            -28             77            103            -15
   7800.00000000             30           -125             34             42
   7804.00000000           -170             13             37             23
   7808.00000000              2            130             97             92
   7812.00000000             19             63            -57            -86
   7816.00000000            -15            -15             51            -61
   7820.00000000            -50           -182           -104           -144
   7824.00000000            -62             70            -34             -1
   7828.00000000            -30             93            -66             51
   7832.00000000           -101            -29            -59             84
   7836.00000000            -13             65             64             34
   7840.00000000             90           -104            -44             10
   7844.00000000             83            -84             17            -28
   7848.00000000            -43           -102            144             41
   7852.00000000             91            126              9             68
   7856.00000000             65            -28             -6            -46
   7860.00000000             -6            -29             26            137
   7864.00000000             56             35            -52            -86
   7868.00000000             40            -18           -127             66
   7872.00000000              3             46             -2            200
   7876.00000000           -111            -38             79            -46
   7880.00000000            -24            -12            -69            119
   7884.00000000             32            -57            -28            -79
   7888.00000000             51            -43              8             23
   7892.00000000            -15           -108            -96            -30
   7896.00000000             65            -71             76             31
   7900.00000000              4           -105            -51             14
   7904.00000000             87            -17            -80            117
   7908.00000000             87            -61             96             96
   7912.00000000             72             48            -59            105
   7916.00000000           -110             -6            -34            -83
   7920.00000000            -53            -66              5            -22
   7924.00000000            -20             19             17             70
   7928.00000000              3             33            -39           -144
   7932.00000000            -77             72            -45            -45
   7936.00000000             54            -35            -31            -32
   7940.00000000            -75            -60            -39             36
   7944.00000000            168            112             44             86
   7948.00000000             43           -120            -73              6
   7952.00000000            -91            -50             -5            -16
   7956.00000000             29             26            -25             28
   7960.00000000           -184             25             91            -77
   7964.00000000             -2              8             66             24
   7968.00000000            -16            -50             52             42
   7972.00000000             44           -100            -92            -32
   7976.00000000              0             28             60           -157
   7980.00000000             27            -37            -52            -36
   7984.00000000             88              8             73            -32
   7988.00000000            -79            -30            -40            -37
   7992.00000000              4            -15             98           -110
   7996.00000000             71            -73            -42           -125
   8000.00000000              8             -2            -52             30
   8004.00000000            -56             22             87             12
   8008.00000000            -20            -41             16             12
   8012.00000000             72             53            -15             47
   8016.00000000             49            -56             83             26
   8020.00000000            -55            130            -14             39
   8024.00000000            -98            -40            -74            -86
   8028.00000000             16             83            -23           -124
   8032.00000000             11             17             10            194
   8036.00000000             39             22             52             25
   8040.00000000            -27            -40            -35           -155
   8044.00000000            -30             18             95             83
   8048.00000000             74             -5            104            -68
   8052.00000000              6             35           -159            -27
   8056.00000000             10             46            -42            -68
   8060.00000000            102              2           -139            -36
   8064.00000000             32             47            -13            -37
   8068.00000000            -37            -51             -9             56
   8072.00000000            -16             11            -64            -37
   8076.00000000             55            -78             25           -110
   8080.00000000             18             19             38             18
   8084.00000000            -68             10            -52             18
   8088.00000000             28             50            -23            -14
   8092.00000000             43            -33            174             -1
   8096.00000000            -21            -42            -56             13
   8100.00000000            -58            -25             -8              2
   8104.00000000             63            118            -37             28
   8108.00000000            -44             81             47            -21
   8112.00000000             16            -52             31             39
   8116.00000000             -7             65            -48            119
   8120.00000000            -44             18             49             -9
   8124.00000000             59             41            119             82
   8128.00000000              9             37            -33            -10
   8132.00000000             35              5             13            105
   8136.00000000             74             38             49            -35
   8140.00000000             71           -114            -17            132
   8144.00000000              3             33             63             11
   8148.00000000             22            -86            105             71
   8152.00000000              1            -51            -56            105
   8156.00000000            -24            118             35            -58
   8160.00000000             62             16             28             28
   8164.00000000            -59             -2             50            -28
   8168.00000000            -17            -41             14            -93
   8172.00000000             45            -24             79             40
   8176.00000000           -101            -59            -29             81
   8180.00000000             -5             43             29             66
   8184.00000000            -67             -2            -31             21
   8188.00000000             42              1             68             -4
##PAGE=N=2
##DATA TABLE= (X++(I..I)), XYDATA
      0.00000000      619251143      446676884      415148715      608405631
      4.00000000      718262582      362739263     -386757090    -1165138759
      8.00000000    -1509906520    -1180442507     -219964620      975870596
     12.00000000     1820359782     1787255113      830082205     -529906240
     16.00000000    -1470998174    -1537925253     -878695639      -47018548
     20.00000000      492659905      622686469      522915560      397274771
     24.00000000      360695032      361094953      237466034     -173267168
     28.00000000     -798838220    -1289065080    -1167704358     -304953432
     32.00000000      893401989     1698464164     1600157643      663810662
     36.00000000     -531789457    -1333422500    -1388822498     -801115764
     40.00000000       29884736      635033710      763166913      494765967
     44.00000000      157997926       42586059      157040157      220040204
     48.00000000      -16817371     -527266204     -960060142     -924540518
     52.00000000     -303873191      600143661     1280389968     1312758532
     56.00000000      648107686     -359238651    -1137077122    -1269236647
     60.00000000     -731878615       81446048      665233619      739694750
     64.00000000      421671481       52944040      -84660196       17208345
     68.00000000      139035475       37064717     -309210861     -673417808
     72.00000000     -731339595     -318859737      402651815     1018302717
     76.00000000     1123195215      599754526     -269188235     -978371157
     80.00000000    -1124591217     -665262769       68813962      626090751
     84.00000000      729597894      434075833       35962918     -173919339
     88.00000000     -119711666       36431171       54522300     -162999800
     92.00000000     -465205396     -576882411     -301571836      276222896
     96.00000000      821186760      960645811      555116841     -194831530
    100.00000000     -848109241    -1022281631     -638252932       38661881
    104.00000000      595344328      735345796      465485322       39384956
    108.00000000     -231585110     -228139187      -57346510       43212159
    112.00000000      -60679256     -298675490     -431121090     -268367087
    116.00000000      177638562      642319747      808227759      510154535
    120.00000000     -119769252     -719684127     -923897561     -614352199
    124.00000000       12528499      561716485      730067994      477953646
    128.00000000       40572849     -273958133     -306861412     -134809854
    132.00000000       31926601       24201785     -144794751     -301523072
    136.00000000     -241343960       73439778      478598266      673916233
    140.00000000      472142223      -60879919     -606156423     -817980411
    144.00000000     -560924755       -9368569      496371621      670857674
    148.00000000      467504658       65325798     -266931771     -353382471
    152.00000000     -203615143        4156392       84982314      -19775400
    156.00000000     -179121575     -201200972       12915552      328540087
    160.00000000      521437240      397610836       -5542621     -457492151
    164.00000000     -673261924     -514633029      -68254824      400837349
    168.00000000      619452289      475478642       94733980     -267123727
    172.00000000     -390212678     -250522333       -8179300      127121915
    176.00000000       73461298      -80177180     -153011718      -38873020
    180.00000000      196911262      377304883      338110208       51469520
    184.00000000     -324924423     -556011074     -471371086     -108276009
    188.00000000      322736985      556513410      464376954      122076343
    192.00000000     -237828602     -399384003     -294325064      -48214985
    196.00000000      145150414      154240328       18015019     -112265804
    200.00000000      -93570254       78804443      268099370      294277271
    204.00000000       90372955     -235473639     -460702663     -420111554
    208.00000000     -118763078      264797788      499434401      438835814
    212.00000000      137706427     -210932051     -394390893     -323780316
    216.00000000      -83682863      135759304      201301643       97815599
    220.00000000      -46677130      -95065510        2871711      153459638
    224.00000000      213917091       95569708     -146739715     -351769191
    228.00000000     -356506260     -129954085      203957932      437137760
    232.00000000      420311390      157090503     -182649407     -390355381
    236.00000000     -352423929     -127245864      124802442      240723901
    240.00000000      175964957       20446858      -84571454      -62705611
    244.00000000       50429344      134293426       90557586      -78215849
    248.00000000     -250705891     -289689019     -128420970      149752491
    252.00000000      366740949      378449396      163768289     -149396640
    256.00000000     -365817982     -361444557     -153571017      105755438
    260.00000000      260104149      228922572       72044763      -71473185
    264.00000000     -108532517      -31076118       66951325       78662576
    268.00000000      -20663722     -162235342     -217294005     -121372633
    272.00000000       93962438      291205662      327806078      163349980
    276.00000000     -108615900     -321436582     -342670113     -165476261
    280.00000000       86095799      255177702      250634197      105278008
    284.00000000      -61683101     -141000009      -93691707       11581608
    288.00000000       71626650       29016384      -80828992     -157817356
    292.00000000     -113689564       44937080      216138927      269079646
    296.00000000      151951271      -72235572     -265816891     -308118987
    300.00000000     -170946175       59533553      239316204      263655078
    304.00000000      130698008      -56187642     -168235892     -145715600
    308.00000000      -32293594       64799140       72433756       -6816951
    312.00000000      -88875916      -92229247         214642      129007378
    316.00000000      196773635      135770732      -31502802     -206388576
    320.00000000     -269116397     -163800910       50033728      227882965
    324.00000000      258563625      133628067      -55465730     -179527235
    328.00000000     -175078232      -71702081       50881042      103604280
    332.00000000       64133289      -21423306      -78119042      -45989782
    336.00000000       53713012      134507886      117410240      -12348481
    340.00000000     -160417761     -216153116     -126459431       45828058
    344.00000000      193234495      222439871      121628560      -41242579
    348.00000000     -168619861     -189329729      -95823635       41375742
    352.00000000      128263591      108406653       15623422      -65447164
    356.00000000      -65721057        6037585       80786434       82319381
    360.00000000        4629437      -98143378     -150666554     -104396111
    364.00000000       18750693      144152567      192554123      122817367
    368.00000000      -25269910     -158377163     -190471084     -100197050
    372.00000000       38500337      131361247      123406407       38117117
    376.00000000      -49690335      -74575192      -32784196       29861348
    380.00000000       61622409       29998661      -44748800     -104999259
    384.00000000      -94224522       -5623768      109625877      163041316
    388.00000000      111139889      -15192531     -136274758     -170011325
    392.00000000      -97585957       23553663      120627352      129607042
    396.00000000       61076319      -33168209      -89295277      -66574405
    400.00000000       -1041098       55443877       51464784      -10508998
    404.00000000      -73568938      -79388361      -15994651       74330974
    408.00000000      127195855       93397139       -1928816     -103855341
    412.00000000     -143792039      -97537635        8375661      104381418
    416.00000000      128386571       70804491      -23174264      -88716408
    420.00000000      -80186984      -19615046       40947987       55436882
    424.00000000       14337409      -39067999      -61613413      -25526656
    428.00000000       41617081       90509970       80410490       11599106
    432.00000000      -75788362     -121260491      -90025008         214567
    436.00000000       89915132      115742190       69436055      -13457335
    440.00000000      -77365430      -80362104      -32822360       27444839
    444.00000000       54692875       33504041      -15630426      -46038459
    448.00000000      -36817452       14408316       65303745       69507965
    452.00000000       18848743      -53835340      -96873786      -77498413
    456.00000000       -5548551       70969368      100250741       65388790
    460.00000000       -4255674      -67572263      -78679655      -38086086
    464.00000000       19336151       54454369       41479201       -1661249
    468.00000000      -38414852      -38029087         537326       41705013
    472.00000000       52046010       18598861      -33657548      -70615863
    476.00000000      -62779731      -12180291       53261887       84631468
    480.00000000       62837187        1840461      -57441118      -77383533
    484.00000000      -41910482       12645144       49120257       44488707
    488.00000000       10152796      -24792911      -36013502      -14748013
    492.00000000       18616800       41120137       24272277      -17208897
    496.00000000      -52942490      -52449829      -12225035       38586626
    500.00000000       66280868       52904497        2847363      -47360289
    504.00000000      -65808708      -43338106        3474144       42137474
    508.00000000       49672229       23316103      -12483474      -34376060
    512.00000000      -23474626        6124290       30587603       26227094
    516.00000000       -6914474      -38549881      -39526823      -10993011
    520.00000000       28387543       53955033       44509811        6625680
    524.00000000      -38128026      -58395221      -40997946         667420
    528.00000000       37653941       46630096       25231923      -11105790
    532.00000000      -29573644      -23917591        2936184       19694495
    536.00000000       19826903       -1101034      -25451518      -30599228
    540.00000000      -12282477       20259025       43835908       39583799
    544.00000000        5974630      -30972138      -47701466      -35231201
    548.00000000         784983       30694344       40859461       24479701
    552.00000000       -3442996      -24326146      -26068194       -6434446
    556.00000000       13123016       16723876        3826608      -14026047
    560.00000000      -23619999      -11069327       14033952       32457894
    564.00000000       28883922        6332717      -24958939      -39891639
    568.00000000      -31004533       -2319684       26849997       37394270
    572.00000000       24107383        -606991      -26396635      -26909456
    576.00000000      -10562391        7627706       17842712        9096586
    580.00000000       -5199625      -15413622       -9722663        6109762
    584.00000000       20879287       21912435        5984237      -17847951
    588.00000000      -32209409      -24203132        -976394       21683217
    592.00000000       32800481       22897569       -1503023      -20306781
    596.00000000      -25870095      -11858466        5922150       16523125
    600.00000000       11157352         156628       -9658763       -9043121
    604.00000000        2779548       14513249       17767643        6990019
    608.00000000      -11838407      -24761954      -19650572       -3555752
    612.00000000       17042660       27491122       20739454         281124
    616.00000000      -16189016      -24205204      -11407317        3392642
    620.00000000       11561044       12377279        1091143       -7647286
    624.00000000       -7516819        -474347       10555721       14991738
    628.00000000        6202262       -8805434      -20449118      -19129560
    632.00000000       -4906981       11806721       22649692       18842683
    636.00000000        3248520      -13795977      -17504230      -11048693
    640.00000000         -31688       10400987        8423169        2790432
    644.00000000       -5808599       -7364291       -2876739        6705498
    648.00000000       12794808        5137441       -6219759      -17487124
    652.00000000      -17097685       -5907080        9926179       19333624
    656.00000000       16821339        3533096      -10564176      -17121993
    660.00000000      -11900862       -2857752        8102244       11365571
    664.00000000        4780798       -5196856       -5826887       -1876767
    668.00000000        6061890        8611108        5894443       -3449856
    672.00000000      -10667341      -10944294       -4476931        8427034
    676.00000000       16037682       15764865        6097115       -8814566
    680.00000000      -14640505      -12930316       -3923037        7189013
    684.00000000        7952145        6355205       -1663668       -4490673
    688.00000000       -3272267         253172        5791607        4155304
    692.00000000       -1802536      -10908269      -10290014       -5757983
    696.00000000        7504832       13293033       12629221        5071194
    700.00000000       -5711949      -13860846      -11168562       -4200575
    704.00000000        4818539        8497960        7530826        1067534
    708.00000000       -2303807       -4421951         583829        7030430
    712.00000000        4709076        -566097       -7623852       -9705669
    716.00000000       -6944248        4245092       12363779       13129495
    720.00000000        5135944       -5933980      -10795024      -11336199
    724.00000000       -1985003        4552715        7208979        6051876
    728.00000000         611004       -2949364       -2689564          39904
    732.00000000        3083601        3434585       -1009760       -5632116
    736.00000000       -7933943       -5186493        4483050        9264228
    740.00000000       11198351        5656872       -3776374      -10642642
    744.00000000      -10479610       -3333696        3397239        7955562
    748.00000000        6751918        2435660        -496539       -4018070
    752.00000000       -1546591        1793734        2816417         -90052
    756.00000000       -2774353       -7531792       -4221191        1053582
    760.00000000        8393503        8881933        5225062       -2537399
    764.00000000       -8145613       -8904060       -4415748        1822623
    768.00000000        5917165        6219444        3706373       -2176307
    772.00000000       -4503170       -2827813        1302442        2797384
    776.00000000        1538579       -2764439       -6347050       -2895265
    780.00000000         736916        5595322        7114458        4807629
    784.00000000        -244104       -6682343       -9578980       -5901005
    788.00000000        2592170        6189962        7297273        1810310
    792.00000000       -1404299       -4768258        -955318         113865
    796.00000000        1229079         597859       -2358116       -3168764
    800.00000000       -3191541        -445512        3625731        6165194
    804.00000000        3285877        -220030       -3661849       -6884326
    808.00000000       -3600815        -290800        2755590        4802676
    812.00000000        2854776        1762265       -2661391        -879728
    816.00000000        -348429        -100393        1107901       -1520623
    820.00000000       -2897608       -2807750        -181111        2841179
    824.00000000        4153067        2031300         452316       -4119882
    828.00000000       -5963774       -4622996         464764        1822719
    832.00000000        4730724        3074576        -816315       -2064406
    836.00000000       -4161248       -2692222         344351        -268929
    840.00000000        -795589        -670943       -1633874        -469543
    844.00000000        1520494        4176430        1856535        -864254
    848.00000000       -3414158       -4202720       -3307979       -1081949
    852.00000000        2889191        4852674        4131655         682365
    856.00000000       -1587961       -3769701       -2006246        -460467
    860.00000000         -98757        1138624        1532376         403188
    864.00000000        1025669        1004554        1105530        1249993
    868.00000000        -479596       -3163725       -3338038       -1839029
    872.00000000        -134311        2536084        4957153        3587452
    876.00000000        -169827       -1248985       -4250405       -3298602
    880.00000000       -1325326         812345         -57185         -67708
    884.00000000           3914        -792204         344449        1162775
    888.00000000          31879         102927       -2117947       -3862084
    892.00000000       -2620904        1363701        2593607        3614804
    896.00000000        3235432          20815       -1690096       -3995843
    900.00000000       -3370532       -1407933         913045         853022
    904.00000000         598488         872224       -1645944         365636
    908.00000000         146842         152967        -718094       -2260068
    912.00000000       -1967304        -913996         463438        1543969
    916.00000000        2862124        1481451         727483       -1605480
    920.00000000       -2824446       -1932651       -1056514        1579572
    924.00000000        2840892        1546873         902735        -121451
    928.00000000        -726984        -441551         799611       -1300241
    932.00000000        -428138       -1067725       -2633117        -827330
    936.00000000         514939        1817758        1307973         -27481
    940.00000000        -642597       -2609294       -2204363       -1177013
    944.00000000         220209        1376545         653420         844328
    948.00000000        -526578       -1016846         641709         518692
    952.00000000        -738544        -828441        -122713         663917
    956.00000000        -653397        1663999        2374793         511882
    960.00000000        1800609        -201916       -2181372       -1396424
    964.00000000        -847829         945176        1307504         162254
    968.00000000        1141933         864001        -534829        -806238
    972.00000000         315773         753244       -1900775        -898160
    976.00000000        -605944         -15093         436355         398815
    980.00000000         188518        -536391          59994       -2263420
    984.00000000       -1489863        -576488          55099         162805
    988.00000000        1492014         550818        -482704        -480548
    992.00000000         614020         506102       -1709174        -779345
    996.00000000        -451320       -1206971        -598671         256824
   1000.00000000        1487879         829213         -22941        -945277
   1004.00000000        -358313       -2133333        -768872        -508835
   1008.00000000        1099929        1357247         944980         674095
   1012.00000000         107679         106316        -547681        -365639
   1016.00000000       -1344341       -1841964         267765        -167996
   1020.00000000        -156617        1063701         793706         109970
   1024.00000000        -602322       -1356176       -2937746        -704689
   1028.00000000         462696        1048305        1523895         411233
   1032.00000000         916844        -779073        -584617         -16041
   1036.00000000        -413582        -664280        -896253        -596291
   1040.00000000        -865225         743074         704245        1202217
   1044.00000000          29962        -430045       -1833502       -1266279
   1048.00000000         -98892         326647         464812         204568
   1052.00000000         101054         353707        -935854         116692
   1056.00000000         611142        -373020         186911       -1145596
   1060.00000000       -1278542        -116081         389215         751688
   1064.00000000        1279503        -395471       -1239820       -2147737
   1068.00000000       -1441420        -557914         272421        1776180
   1072.00000000        1617750         284580        -615974        -733085
   1076.00000000          53375        -539866        -330248         504426
   1080.00000000         885788       -1058906         250802        1315918
   1084.00000000        1711580         705262         269957       -1063577
   1088.00000000       -1371995       -1638494         233245         214023
   1092.00000000        2129459        2324065         689892        -792293
   1096.00000000       -1099781        -702870       -1121375        -294917
   1100.00000000        -217715         160041         306170        -288643
   1104.00000000        1472685         -51015        -414247        -226256
   1108.00000000        -810197        -748036       -1347921        -773429
   1112.00000000         563501        1293711         563271         415680
   1116.00000000       -1154824       -1249139       -1440053       -1564196
   1120.00000000         116384        -906462        -892357         439434
   1124.00000000        -219512        -396710         513611         496373
   1128.00000000            670        -625865       -1148665        -350711
   1132.00000000          64868          78571        1088978         107591
   1136.00000000         -94448        -828241        -696653        -947950
   1140.00000000       -1220676          82612        -607006         508179
   1144.00000000         257324        -120631         346486        -244281
   1148.00000000        1401427        -357593       -1278600       -1064383
   1152.00000000         294420        -331019         968367         952588
   1156.00000000        1260346         775768         656291         120086
   1160.00000000        -584527        -365411        -459867       -1038770
   1164.00000000        -566951         217705         697015        1032600
   1168.00000000        2092413        -763899        -623280        -375787
   1172.00000000        -700648       -1281200        -401327        1024949
   1176.00000000        -550705        1132641        1161079         783133
   1180.00000000         -24722       -1501737         384568        -986772
   1184.00000000        -925922         320827         151788        1433622
   1188.00000000         264175         575643         725503        -171623
   1192.00000000         -88518        -696854        -914389         305777
   1196.00000000         970664         756799         193956         792173
   1200.00000000        -541852         229316         -34463         293735
   1204.00000000         658268        -344262        -648601         592784
   1208.00000000          35663        1119470        1350629        -401922
   1212.00000000         559280         208986         305145        -336213
   1216.00000000        -656863        -641290         845315        1002058
   1220.00000000         377037         415747        -442618         499113
   1224.00000000         -33116         458260         454019         351142
   1228.00000000        -330846        -221544         251735         469735
   1232.00000000         577254        -425548        -689073        -487803
   1236.00000000        -262490        -100309         467384        -146468
   1240.00000000        -115194        -832953        -109298         619128
   1244.00000000         116663         374154        -278720         205366
   1248.00000000          80080        1473774        -790904         -14144
   1252.00000000         822794        -356371       -1200626          22689
   1256.00000000        -108292        1090487         581466         414132
   1260.00000000        -143245         205249        -506647        -151759
   1264.00000000         276656        -139590        -561288        -400285
   1268.00000000         414195         390832         118974         149391
   1272.00000000         442307          77368          85713        -824529
   1276.00000000        -115178          74322        -348142         243394
   1280.00000000        -108425         286382        -603205        -196759
   1284.00000000        -665993        -726699         -29919         -99242
   1288.00000000         473061         495240        -487992         -78690
   1292.00000000         670913           3975        -841434         425130
   1296.00000000         -74688          49506         -82053        -273287
   1300.00000000         845893        -900866         910930         -98779
   1304.00000000        -265047        -702240        -614494        -190114
   1308.00000000          88594         299456         106363         557483
   1312.00000000        1120810         853678         236988         299845
   1316.00000000         256926        -372758          91040         -31548
   1320.00000000        -223655         672937         458332         870604
   1324.00000000         747546        -168052         461357          74475
   1328.00000000         -90354         248721          49087         -71300
   1332.00000000          -5327        -175513        -155634         147385
   1336.00000000          27028         110493         268369        -261233
   1340.00000000         413304        -594937         -50232         576163
   1344.00000000         428755          85199        -579546         -94344
   1348.00000000         218342        -307891         587651          85029
   1352.00000000         392989         104500         -41211        -617342
   1356.00000000         423562         244348          63182          20517
   1360.00000000         521053         166537        -887492          89257
   1364.00000000         386993        1456270         511535         -93237
   1368.00000000        -325059         115851        -359042        -378149
   1372.00000000          85001         115357         525306        -601363
   1376.00000000        -775782         490868        -783365        -429521
   1380.00000000         532350          29463        -175779        -499136
   1384.00000000         481073         502262         321586        -507877
   1388.00000000         128184         -98905        -233351        -942129
   1392.00000000        -106923         525753         295224         507239
   1396.00000000         -96597        -438288         101907        -119056
   1400.00000000         457371         718115        -513669         424523
   1404.00000000        -175637         170163         155907         -81889
   1408.00000000         -82200         -97212        -251004        -446213
   1412.00000000         429061          56808         434685         598378
   1416.00000000        -309376          58431         -44554        -133239
   1420.00000000        -193673         243014         398191        -306582
   1424.00000000         221628        -316310           5737        -296422
   1428.00000000        -365609         227064         105016          60921
   1432.00000000        -694330        -703561         524177        -620365
   1436.00000000        -156358         116421           1496        -203958
   1440.00000000         269286          17001         306143         260497
   1444.00000000        -573909         290358          52098        -525449
   1448.00000000        -213005          27822         158387         -56125
   1452.00000000        -389045        -741680         440498         252909
   1456.00000000         278078        -203337         326669         137506
   1460.00000000        -723335          28359        -505211        -279859
   1464.00000000        -422611        -580549         108857         -74651
   1468.00000000         489030          69551         199457        -444397
   1472.00000000         148280         350257          27572        -735211
   1476.00000000        -193062         381746         467894        -409536
   1480.00000000         -50833        -310835        -346150         -20092
   1484.00000000         175645         -87239         149628          81493
   1488.00000000        -284664        -431806         106800        -377109
   1492.00000000        -401241         125968        -466273        -300186
   1496.00000000        -389715        -102173          47395         268419
   1500.00000000         381006        -392331          59276        -572074
   1504.00000000        -174657          10560        -232232          84448
   1508.00000000        -175638         473864         581375        -865041
   1512.00000000        -188268        -135764       -1068168         198640
   1516.00000000         482260        -351256          81247          86025
   1520.00000000           1900         -29122        -167685        -282495
   1524.00000000        -338482         245157        -183645         509821
   1528.00000000         672050        -270828         367291        -750109
   1532.00000000        -136160        -515250        -377256        -596285
   1536.00000000         627437         268730         590588         380825
   1540.00000000         -88908         284016        -172424        -472479
   1544.00000000        -872391         294910          62935        -124232
   1548.00000000         400104        -541601         652315        -736977
   1552.00000000        -142493        -209970        -496075          12563
   1556.00000000        -719486         383037        -383384         258488
   1560.00000000         248865         333262         367152          30120
   1564.00000000        -292425        -497609        -636985        -761928
   1568.00000000         -92500        -277498         -31167         137574
   1572.00000000         386212         -31917        -307927         106335
   1576.00000000        -207129        -136027         117469        -233095
   1580.00000000        -458071         639039         -14808        -421275
   1584.00000000          52652         -81735        -406328            299
   1588.00000000        -382551         605893        -193740         -86900
   1592.00000000          25605        -328015           1824        -340251
   1596.00000000        -679092        -573913         224651        -101745
   1600.00000000         137954        -180413          40877         308450
   1604.00000000        -121987         -35066        -588128        -279698
   1608.00000000          99273        -501602         259800          32350
   1612.00000000        -330094          54280         -71128         143138
   1616.00000000        -220450        -108018        -118562        -104488
   1620.00000000        -287907        -162045         447883        -330547
   1624.00000000         -77517          24076        -616596        -425424
   1628.00000000        -189287        -210948         227441         -87385
   1632.00000000        -320160         -26417        -457722          25463
   1636.00000000          20419          -8860           9103        -397351
   1640.00000000         -45041         -17821         249576        -107827
   1644.00000000         204024         -19234         363530        -214426
   1648.00000000          87756        -528472        -435862        -725292
   1652.00000000         125463         431234         -90114        -237024
   1656.00000000          -3371         -30191        -163775        -167976
   1660.00000000         275948         213465        -184895          96198
   1664.00000000         203308         -26718         105672        -340882
   1668.00000000        -827955        -230984         -29722         -13601
   1672.00000000        -254749         367584         416729         453270
   1676.00000000         159497         123972         480928          65486
   1680.00000000        -430625            781        -258019         360823
   1684.00000000        -421291        -327256         266001        -134209
   1688.00000000        -397142         111586         134135         230738
   1692.00000000         -34193        -470350         -60038          32528
   1696.00000000         279861        -621581        -293730        -412061
   1700.00000000         244204        -156184        -100389         448942
   1704.00000000          43224        -771586         -43341          55719
   1708.00000000          52132        -651585        -731104         325516
   1712.00000000         152179          18861          -8422          26714
   1716.00000000        -137750         326006        -218913        -204234
   1720.00000000          78208          56305        -355962          27634
   1724.00000000         190336        -370267         187897         201935
   1728.00000000         216811        -375227         130620        -115058
   1732.00000000        -390813        -236810          65390         217285
   1736.00000000         585660        -397016         319763         -67804
   1740.00000000        -134214         -66008          84534        -216561
   1744.00000000         173463         189637          44130        -173227
   1748.00000000         -61695        -157617         121839         -65904
   1752.00000000         -38005        -272573         112980          25191
   1756.00000000          25905         321491         166605        -247772
   1760.00000000          -1900        -612016        -203447         -43865
   1764.00000000          92545         500470         122451          13196
   1768.00000000        -485780         341565        -167030         136410
   1772.00000000        -189135         529820         -64249         171054
   1776.00000000         246444        -225272        -177198          81235
   1780.00000000         270909        -305683          50544        -519900
   1784.00000000        -213402        -269671         -59550         -54714
   1788.00000000        -394927         346571          -9171        -178305
   1792.00000000          53518        -191566         559041         -37744
   1796.00000000        -657278          96513        -108100         380271
   1800.00000000          99876        -252055         -91931          96902
   1804.00000000         -60609         107333          91098         246104
   1808.00000000         186486         181946         -47375        -228269
   1812.00000000        -106686        -216443        -103969          91152
   1816.00000000         -75499         230354         201723          69864
   1820.00000000        -266572        -314598        -310274        -155291
   1824.00000000        -440213         415644          62609          81806
   1828.00000000         238558        -103077        -170506         264547
   1832.00000000        -262475          20439         -52308         259238
   1836.00000000         236585          89170         -14679         -99079
   1840.00000000         266410        -187335        -453683          59879
   1844.00000000          83246         -15354         171378        -278620
   1848.00000000         254473         210010         131798        -252342
   1852.00000000         -66831        -415707        -111302        -298036
   1856.00000000         174044         125575        -210366          19548
   1860.00000000         158623        -150637         280251         -26682
   1864.00000000         513924         128130         148817          13857
   1868.00000000         436969         102657          22718        -341548
   1872.00000000        -498804         -30551         -13779        -208087
   1876.00000000         -25287         252579          90944          20556
   1880.00000000         185331         169533         171272          50056
   1884.00000000        -117667         351497        -281589        -392616
   1888.00000000         216304         384990          31438        -118489
   1892.00000000         131095         -95634        -348049        -211618
   1896.00000000         -36053        -330057         139756         172955
   1900.00000000         430826         276793         -24781          94177
   1904.00000000          39960         -99571         -16920        -138080
   1908.00000000         287892         275369         203645        -128230
   1912.00000000          48205          -9101        -184643        -210296
   1916.00000000         -35041        -343616         141094        -175378
   1920.00000000         -57885        -200522         -75941         373561
   1924.00000000        -126245        -268041        -133261         459254
   1928.00000000        -470293         -34666         245069        -104199
   1932.00000000         171952           4504        -169821         133764
   1936.00000000          66747         -13746         -54139         -22846
   1940.00000000          63037           7371         313123          97876
   1944.00000000        -212622         289682          14052        -382666
   1948.00000000         279731         275350        -195730         384568
   1952.00000000          98302         174689          64797         -10672
   1956.00000000         -17285        -206043         304140        -181259
   1960.00000000         -62977         -66245        -104343          -3046
   1964.00000000         321678         -64298         103621          32475
   1968.00000000          59875          59475          35018         -49493
   1972.00000000        -262791          64884        -208103        -182733
   1976.00000000         -13580        -293022          66547        -493241
   1980.00000000         250567        -323386         183111         -28730
   1984.00000000         392333        -385388        -104634         -24215
   1988.00000000          54905        -252267        -164869          47079
   1992.00000000         441838         -83803        -198721         -80173
   1996.00000000        -474874         -51312        -188415          46112
   2000.00000000         -39104           1382         158851        -100028
   2004.00000000         104848         185985         198465        -147382
   2008.00000000          77718        -234099         176883         102760
   2012.00000000         -92780         -53955         452917        -112202
   2016.00000000         -75013         356873        -235608        -249817
   2020.00000000        -169433         -75461         376702         -28328
   2024.00000000        -127991        -129346         -84074        -242782
   2028.00000000         276749        -191185        -127529        -183409
   2032.00000000        -477053        -167047         332856          20930
   2036.00000000         -20832        -277016        -297325         -38004
   2040.00000000           3079        -212774          92686         -51391
   2044.00000000          25306        -118397         -45034         142649
   2048.00000000         263709        -241946          41317         -66593
   2052.00000000           2777          32074        -134262         204427
   2056.00000000        -202273         248221         -47430          41253
   2060.00000000          61360          51543        -188029         -67163
   2064.00000000           1356         -49221         215209          47941
   2068.00000000        -238853         -66282         -35932        -203496
   2072.00000000        -282746         -23584         -94019         -93278
   2076.00000000        -169428         135198         -42639          -5524
   2080.00000000        -113216        -100496         115348        -171355
   2084.00000000          97477          74477          17032        -101676
   2088.00000000         -18842        -136841         -11942        -246930
   2092.00000000         -16038          27252         -88731          30414
   2096.00000000         242025         167204          70376        -149861
   2100.00000000        -179289         -91385         -34639        -265873
   2104.00000000         142459          60386        -151362          41090
   2108.00000000         -80100        -194737         224644        -107866
   2112.00000000        -114189          85167          49898         -73947
   2116.00000000        -101662         297194         -67382         429044
   2120.00000000        -398667          24907          63072        -214893
   2124.00000000          63193         371849         114622        -323419
   2128.00000000         -75649         313178         -34631         -58683
   2132.00000000        -173202        -471311         -75130         157379
   2136.00000000          31688         -55471         -61884         -92694
   2140.00000000        -170130          33994          20420          83574
   2144.00000000         166466          16410         121846         -77047
   2148.00000000           9537          16255         -65800         -70729
   2152.00000000        -122785          62122        -175800         199079
   2156.00000000         104927         180688        -383859        -146495
   2160.00000000          36892          94549          55294         128369
   2164.00000000        -171784        -110667         -37372        -217989
   2168.00000000         -41343        -295756         253624         139693
   2172.00000000        -215031           3712        -201074         -23655
   2176.00000000          -7599         148777         -83679          46019
   2180.00000000         101391          33991        -139875        -172561
   2184.00000000        -235093        -152668        -136249         -73863
   2188.00000000          42375         -24562         142551         -60998
   2192.00000000         117350        -185661         121778           6185
   2196.00000000         -69504        -239792        -257550        -168153
   2200.00000000          77543         -36537          44087          23404
   2204.00000000         182500         -22688         194298         -33543
   2208.00000000         146887        -129060         -87467          47454
   2212.00000000        -160695        -314274         185686         -62625
   2216.00000000        -217586          19545         161717          15243
   2220.00000000         -51052        -193182          27899         212267
   2224.00000000          63870         278830        -144660         -50828
   2228.00000000        -127598         132876          18556         -88065
   2232.00000000        -415653        -132670         149472          83725
   2236.00000000        -251760         -14415        -160225        -120833
   2240.00000000        -223204          69454         -62557         326580
   2244.00000000        -217622        -154132          -8782          37718
   2248.00000000         -85297          15982        -410111        -104670
   2252.00000000         165024          57361          41963        -105116
   2256.00000000          87667        -118633         -81964          46468
   2260.00000000         201799         -46902         219518         118729
   2264.00000000        -141328         113267         -58552        -165754
   2268.00000000          95577          19231           -732          66893
   2272.00000000          32300          64765          83206        -100945
   2276.00000000          12742          10225         -32971         -15157
   2280.00000000         126052          27884         203578         -97650
   2284.00000000         -19959         174247         -78006         -51908
   2288.00000000         -52662           5996         -77205         -94818
   2292.00000000         168504         179884         -66639         100153
   2296.00000000        -197649          70771         -18926          14437
   2300.00000000         -27280        -113257          -6898         149487
   2304.00000000        -181027         213111        -109135          48686
   2308.00000000          25475         -67080           3399          38961
   2312.00000000          35878        -120891         335807           -125
   2316.00000000         -80727        -238746         -55309         -77186
   2320.00000000         -14445         162417         200894         114485
   2324.00000000         321287          41744          27033        -147289
   2328.00000000          16713         -42689        -137843          -5732
   2332.00000000          96416         -96737         -19545         -28932
   2336.00000000        -255327        -152187          94438         -20624
   2340.00000000        -199140        -209765         111319         -58189
   2344.00000000        -226667          -3189         -95673          33857
   2348.00000000        -115934        -221711         -68267          99666
   2352.00000000          82567          53357          66957         -41166
   2356.00000000          86185        -139742         -52385         -26669
   2360.00000000        -281789         -26334        -120629           2052
   2364.00000000          16940           6259         -97401          28188
   2368.00000000          28682         -17506        -186731         -92262
   2372.00000000        -125893          42305          51962         131107
   2376.00000000         270368        -188654        -132192         -27990
   2380.00000000          19006        -124080         122473         161050
   2384.00000000        -114553          23849         131181        -157340
   2388.00000000         -15233        -111224         -98461         -64152
   2392.00000000         -51724          -3530        -133210          -6067
   2396.00000000           3705         -72753          23679         120395
   2400.00000000          95810          88491        -132722          58302
   2404.00000000        -170914        -245085         -37242          72923
   2408.00000000         -83859          10891          27373         112938
   2412.00000000         -54381          97303         147355         161795
   2416.00000000          35941         145383         108444         -77049
   2420.00000000         -34794         -74547          39881          33124
   2424.00000000           5305          70140         -56598          78337
   2428.00000000          30178        -115551         -72078        -127486
   2432.00000000          52198          38020         160435          77360
   2436.00000000         -16959          15123         -36471         184277
   2440.00000000         155276        -154387          -3489        -180684
   2444.00000000        -125762         -77050          62215        -138956
   2448.00000000         -79224         -30333         167396         143370
   2452.00000000        -145605          89882        -127137         -74826
   2456.00000000        -109739         -13532         -68248        -113691
   2460.00000000          63773        -142384         103514          -4375
   2464.00000000         -49592         -35557          78703           1615
   2468.00000000          67414         -27987          96717         135431
   2472.00000000         -34431         -44481         -95506        -131690
   2476.00000000         -37920         316089          -4940          71909
   2480.00000000         -12523         -51617         -45102         113599
   2484.00000000        -152484         267870         236272         147744
   2488.00000000         -97515        -208584        -242874          76593
   2492.00000000         115583          31212         170931          34389
   2496.00000000         143088         -91136        -103299         -36426
   2500.00000000          55345         158786          -1310          17288
   2504.00000000          33318          74320          57525         -64549
   2508.00000000          10271          13144          74631          66666
   2512.00000000        -125493         -87992          98902          81315
   2516.00000000          28863          23402         191597           8711
   2520.00000000         -28931         -94504         105570          29433
   2524.00000000         100534         -90545         -23783           9380
   2528.00000000         134851         -10962         -45920          30377
   2532.00000000        -149216         -58394          95041           4174
   2536.00000000          41113         132459         211454         136075
   2540.00000000         119589        -110566         -56085         -52499
   2544.00000000         -11540        -144418           4574           4560
   2548.00000000          14254          55473         -85590        -221693
   2552.00000000         -71941          20042        -116006        -149759
   2556.00000000          97271          93537         -12545         175346
   2560.00000000         -85895         -18917         -10620            -31
   2564.00000000        -107829          43936        -141144         111286
   2568.00000000         -53366          55690          92941            379
   2572.00000000         -24111          69963        -129316        -142439
   2576.00000000          89310          -5613         137252         191205
   2580.00000000          97803          -4283          47379         130481
   2584.00000000          98889          39012          51971         -15464
   2588.00000000         -57683          83941         -83290          27469
   2592.00000000        -108232         166442         -30228          74169
   2596.00000000          36873         -59956          11059         -90114
   2600.00000000        -159818         -16348          79429         -99395
   2604.00000000         -45786         -74170         -70588          -7663
   2608.00000000        -118802          42582         -68294          64480
   2612.00000000          48049         -23542           5053          42978
   2616.00000000         -68957         112965            574          -9036
   2620.00000000         -31887         -82942          63607         -52397
   2624.00000000          35064          14365          40491         -18442
   2628.00000000        -164592        -113234         -89415         -27671
   2632.00000000         -84456          21632          81879        -110722
   2636.00000000         -63075         105454         -69486          86838
   2640.00000000         -20301        -124574         -50247          32608
   2644.00000000        -102233        -107311         -40950          -6751
   2648.00000000         133532          18311         -70209         -68063
   2652.00000000         171726          25457          32205          -5510
   2656.00000000         -29410          57624         -20542          -1002
   2660.00000000         -26763          43265          38450         -52371
   2664.00000000         130801          70279          57205          44314
   2668.00000000         -81379          52366          78993           -590
   2672.00000000         -32010         -15003          65100          76310
   2676.00000000          16775           3241         -91637          49059
   2680.00000000         -11033          -1122          17009          16598
   2684.00000000         -70851          38387         -27291          96362
   2688.00000000         126558          81620         -43482          22414
   2692.00000000        -112306          -1576          80286          39722
   2696.00000000         117892          -1610        -117849         -10746
   2700.00000000          39985          73240         -46201          57531
   2704.00000000          80209          -9627          43459          58383
   2708.00000000         -16749         -30042        -134672         -20817
   2712.00000000          22856          11172         -51750         -50637
   2716.00000000          45351         -86289          59365           1168
   2720.00000000          16165          15830         168929         -21539
   2724.00000000         -19474         -20438         162865         -80206
   2728.00000000         -59649         -11043        -196350          66733
   2732.00000000            259          96251          21421          76599
   2736.00000000          49774          33404          -3515           9001
   2740.00000000          58944          43891          36541         -48834
   2744.00000000           7120        -163938         -15892          -3593
   2748.00000000         -78011         -27508         -38816         -19094
   2752.00000000          48371          -8400          30331         -61229
   2756.00000000         -33568          61375           9481          73749
   2760.00000000         -57645         -49774          88066          47615
   2764.00000000          73587           3345            311         -54736
   2768.00000000         -10361          -1990         -21345         -90078
   2772.00000000          12882          35242         -28278         -24579
   2776.00000000         -17624          38544         152042        -227234
   2780.00000000         -67500          32935           6177          -5357
   2784.00000000          20577          39717          -8959          85716
   2788.00000000          48023         -25822          26767         -75465
   2792.00000000          -2307         -27408          71557         127556
   2796.00000000         -26167          49649         -22342          10033
   2800.00000000          66498         -16230          60575          11567
   2804.00000000         -59060          56382          34529          23460
   2808.00000000          -1612         -73598          51390         -37114
   2812.00000000          65165         109307         114123         100171
   2816.00000000           7379           6242         -87985         -68029
   2820.00000000          65251          25914        -110418         -53412
   2824.00000000          74264          57812         -20931        -165879
   2828.00000000         -22061          12845         107581          84373
   2832.00000000         -57823         -76295          47739         -54355
   2836.00000000          31585         109672          22922         -38331
   2840.00000000          76110        -115496          39786          21383
   2844.00000000         -52879          32780         -70342         -87279
   2848.00000000         -33555         -33069          17520          72270
   2852.00000000          -4002         -10288         122364        -109828
   2856.00000000         -22093          38181        -129830         -31800
   2860.00000000         -55292          19068         -21381        -105180
   2864.00000000         -45351         -38064          21626         -49464
   2868.00000000          33883         -92520          12080         -32735
   2872.00000000          48224         -33371         -25524          57998
   2876.00000000         -63122        -112807         -25462        -105204
   2880.00000000         126244         -32781         100768          29113
   2884.00000000         -24609           3582          13424         -36110
   2888.00000000          20544          12323        -100213         -58369
   2892.00000000         -79394           7062          65173          18286
   2896.00000000          21981          -1802          58622         -41495
   2900.00000000         -57012          -8887          19298         -21204
   2904.00000000         -32741         -30365          80555         -23631
   2908.00000000           6070         -42550         111667         -24415
   2912.00000000         -48386          12383          -6162         -75078
   2916.00000000         127879          -2179         102117          44974
   2920.00000000          18188         -54649          26119         -32168
   2924.00000000        -109437         -24177          45998         -44383
   2928.00000000           7755         -45511         -34376          15588
   2932.00000000          27341         -25682          42940         -99189
   2936.00000000           6865          30682         -50044         -13323
   2940.00000000         -23623         -40813          92962        -117308
   2944.00000000          37116          24553          79781          30749
   2948.00000000          68661         -62535          13528          25172
   2952.00000000         -13831          39754          18068           7476
   2956.00000000          80804         122866         -15527          51370
   2960.00000000          22743         -30595          22638           4024
   2964.00000000          35574         -64813          44572         -11332
   2968.00000000          10868          56205         109936          27682
   2972.00000000         -61597          -4957         -24341          43401
   2976.00000000         -87752         -55514         -87794         -27181
   2980.00000000          57659          15351          28063         -46542
   2984.00000000         -43300          70878         -31786          -6569
   2988.00000000         -18658         -68322          71803         -67112
   2992.00000000          19612          61702          30110         -31528
   2996.00000000         -97300         -92737         -95598          -3151
   3000.00000000         -62890         102947         -13395          10008
   3004.00000000         -16903          57046         104615         -58246
   3008.00000000         -14163           4002          89869          -1958
   3012.00000000          90267         -19356          24398          34974
   3016.00000000         -24992          75899          16999          18440
   3020.00000000          79456          16872         -61556         -17219
   3024.00000000          36937          27019         -67497         -22317
   3028.00000000          62291          99131          29321         -17058
   3032.00000000         -37023         105691          41356          40381
   3036.00000000         -44770           7622         -48357          14027
   3040.00000000          86913         -37786          96453         -15887
   3044.00000000          71500          54549          14703           8943
   3048.00000000         -26663          11884        -116305         -22223
   3052.00000000          43963         -42145          40520          19468
   3056.00000000         -85880          77831         -56554         -59936
   3060.00000000         -14772          80422         115208         -11572
   3064.00000000         -65476         -33377           9107         -33764
   3068.00000000          31575         -33211           4676         -14600
   3072.00000000          -3013          48447         -56745           4703
   3076.00000000           3572           1165         -19048         -51916
   3080.00000000         -80533         -32618          59241          98482
   3084.00000000           5792          -4313          15298         -12456
   3088.00000000         -79685          -9184          17839          31482
   3092.00000000          43734          -1199         -32424          10260
   3096.00000000         -14908         -10573          92539          25371
   3100.00000000          26434         -57377         -75202         -18144
   3104.00000000         -60760          33995         -38360          27166
   3108.00000000          82032          65531          13914         -54520
   3112.00000000          15381         -42358         -27992         -33666
   3116.00000000          26762          63554         -61258           6577
   3120.00000000         -21833         -15301         -10312          -4360
   3124.00000000          26430          73669          -9444          30653
   3128.00000000          33698          -8687          59257          -2361
   3132.00000000          29745          -3208         -29258          -4461
   3136.00000000         -13266          17324          31784          59414
   3140.00000000          71180          25683          15640           7678
   3144.00000000          22639           9071         101070          41948
   3148.00000000          24033          47103          96249          20243
   3152.00000000          23303           3425          12131          20170
   3156.00000000         -45483           1657          -6742         -19762
   3160.00000000         -23855          14713         -43980          21104
   3164.00000000          24445         -31903          -4064          43119
   3168.00000000          53745           6838          17292           2790
   3172.00000000         -39425         -64243          -6179          39975
   3176.00000000          -3404          31307          21612          -8875
   3180.00000000         -52240          14281         -47843         -14110
   3184.00000000           5480         -40935          20545         -39596
   3188.00000000          25235         -49174          37768          21585
   3192.00000000          -5352         -37033         -26143         -39033
   3196.00000000           -536           1176         -30276           3829
   3200.00000000          -9164          79840         -22303          24458
   3204.00000000         -88218          10824         -10493          30774
   3208.00000000         -45032          -9902          -2205          10373
   3212.00000000          36289          -9514           -746          12550
   3216.00000000           7132         -29249          -2596          -3558
   3220.00000000         -53868          -6541           2283         -35556
   3224.00000000          64521         -36963         -16996          12477
   3228.00000000           2995          10156          51582          14773
   3232.00000000          26203         -21676          56513         -16406
   3236.00000000         -10414         -21196          -8795         -92725
   3240.00000000          25733          48089           -543           1306
   3244.00000000          66216           7883         -32439         -35077
   3248.00000000          -5707          16410         -63847          16656
   3252.00000000          18915          61403         -31274          64871
   3256.00000000          91879           4711          25850          82079
   3260.00000000         -21196           1204         -29757          72900
   3264.00000000           4183          42416         -12416          90917
   3268.00000000          12785         -14272          -1330          87012
   3272.00000000          15854          59691         -79409          -8162
   3276.00000000           7297          52071         -26410         -22024
   3280.00000000           7331          48665          49297           8301
   3284.00000000          21192          41609           9762          -6121
   3288.00000000         -25873          -3832          39798          -6535
   3292.00000000         -15384          15537          -8454          40380
   3296.00000000          66963          26412          14840         -18601
   3300.00000000          13613         -41827          -6621          75699
   3304.00000000           1066         -25115          -7485          72505
   3308.00000000         -51670          -1114          38335         -77044
   3312.00000000          18929         -22153           4397         -13662
   3316.00000000          -3932         -28192          25255          -6622
   3320.00000000          24182          18027          -3472          23316
   3324.00000000         -32356          29076         -10516         -41170
   3328.00000000          43042          -4731           2718          19953
   3332.00000000         -57140          -7633          12152         -20565
   3336.00000000         -43019          51321          75369           3375
   3340.00000000          34030          41412          21409          -4634
   3344.00000000          56738          25351          55106          -8825
   3348.00000000          -2005          30404          -2339          20824
   3352.00000000          48488         -38437          16609          25267
   3356.00000000          56651           4184          25280         -56589
   3360.00000000          -4250          14160          -4526         -66045
   3364.00000000         -39634          33392          51088           4776
   3368.00000000         -39565         -26698          36674          41096
   3372.00000000          28248         -17117          16803         -10008
   3376.00000000         -61707          16996          34415          34447
   3380.00000000         -15652         -12632          20486         -49946
   3384.00000000          -6835          -6168         -35475         -15438
   3388.00000000         -37655          20065           3371         -28919
   3392.00000000          41237         -56638          24740          19625
   3396.00000000         -22964           7334          43743         -16708
   3400.00000000         -48296          12909          -3698         -15597
   3404.00000000          33371         -24605         -10426          -2811
   3408.00000000          15087          23170         -25761          11012
   3412.00000000           6857         -38876         -14877          23705
   3416.00000000          12961           5526          47326         -39695
   3420.00000000         -11822          13885          10685          12448
   3424.00000000         -16370          42734          -4239         -49000
   3428.00000000         -15577         -22743         -19860          -2598
   3432.00000000          24728         -22664           9412          -3171
   3436.00000000         -26327          11676           5691         -34859
   3440.00000000          -3346         -53276         -10092          11090
   3444.00000000         -26132         -28641            340         -25059
   3448.00000000           8000          -7294          30375          -5334
   3452.00000000            -28         -13252           2778          24260
   3456.00000000          16339          31289            529          12172
   3460.00000000         -40578          15506           7591          21775
   3464.00000000          14825         -12462         -12492          38027
   3468.00000000          21557           2131         -19025          -1903
   3472.00000000           7229          17392         -10829           5547
   3476.00000000         -20732           2237         -15387         -29998
   3480.00000000         -21791          -8028          -3744         -16520
   3484.00000000          16641          23403           5380          -5865
   3488.00000000          -6042         -17452          20737          17139
   3492.00000000          32134         -33829         -13014         -26193
   3496.00000000          10371          -7667          -6592          44411
   3500.00000000          52070          24235          29747          -9400
   3504.00000000         -24559          -8579          50733         -14016
   3508.00000000          10226          38745          11031          63088
   3512.00000000          23967         -29126         -68195          11044
   3516.00000000          22731          -5963          26133         -28693
   3520.00000000            585          46979         -30377           2240
   3524.00000000         -23769         -19752          -7258          -4502
   3528.00000000           3718          19798          17901         -14900
   3532.00000000         -12181          20247           5497           6047
   3536.00000000          11171          20775           6584          12712
   3540.00000000          31658         -18698         -29680          32118
   3544.00000000         -14614          20605          23119           1443
   3548.00000000         -14335          34577          11367          21499
   3552.00000000          44445           3410          17505          15027
   3556.00000000          12322          23596         -36463         -12744
   3560.00000000          -8424           9126           8960           3338
   3564.00000000          14412         -35975          28248           8240
   3568.00000000         -12018          -8388           6193          12698
   3572.00000000          -5616           1838         -17939           9315
   3576.00000000          19927         -17248          22412         -27435
   3580.00000000           -852         -22074          -9404          19414
   3584.00000000         -11415         -18219          13439          18954
   3588.00000000           3573          15983          17455         -47718
   3592.00000000          -5823          13397          26326         -22027
   3596.00000000          10356           2149          -5278          22813
   3600.00000000          29332          -3905          -6781          30197
   3604.00000000          10126           -313           -440          31920
   3608.00000000           9180          14615          -5752           1941
   3612.00000000         -28138          61382          27965          35565
   3616.00000000          34129         -12489          26650          -5120
   3620.00000000          18734         -20063          21307           7392
   3624.00000000          19485         -14418          20654          47698
   3628.00000000           8394          16934          -5288           -711
   3632.00000000           5927         -21818          -2713           8785
   3636.00000000         -32110           -138          -2586          -2909
   3640.00000000          21219          23059          -1314          37868
   3644.00000000          46357          12155          22209          -1645
   3648.00000000         -31597         -44769          22546         -21883
   3652.00000000          11529         -13103         -33280         -21783
   3656.00000000          24807          -9638           6097            986
   3660.00000000          -7573          -4703           9858         -20094
   3664.00000000           7691          -8143          16854           2549
   3668.00000000          27676          -5036          23425           8186
   3672.00000000          24049           5515          -1992          30840
   3676.00000000         -28002          17762           -645          12182
   3680.00000000          10673         -53653         -20501          47559
   3684.00000000          16055          36166         -20815         -17903
   3688.00000000          34100           1247         -27455         -34084
   3692.00000000          10372          -3036         -16790          19155
   3696.00000000          19072          39656         -16738          17400
   3700.00000000            484          22308          22624          22806
   3704.00000000          -5442         -20491          27835           1705
   3708.00000000          12849          26560          58318         -12036
   3712.00000000           6056         -26245          13849          13232
   3716.00000000          -5104          -8460          34921         -52366
   3720.00000000          20290          -1443          31464          16001
   3724.00000000          34789         -10018         -30862          -3923
   3728.00000000           6598          25118         -25740           9219
   3732.00000000            838         -24085          19800          -4565
   3736.00000000          35409          -6995         -31037         -25036
   3740.00000000           -215         -13977          -7228          23822
   3744.00000000         -24859          18391          19184          25794
   3748.00000000          61904            909         -26986          20609
   3752.00000000           7352           7972         -19060          -1196
   3756.00000000         -16795          29267         -21111         -19574
   3760.00000000          10567           5038         -36447           7597
   3764.00000000           9755         -25450          28326          -4322
   3768.00000000          27725           -330          24441          24710
   3772.00000000          -9810           4592          22799          39096
   3776.00000000          34154          -6301          -6919          10476
   3780.00000000          38271         -16037           8121         -24696
   3784.00000000           2135          40079         -20440         -14251
   3788.00000000          -2457           3875         -12897         -10596
   3792.00000000          -8035          12784          36041         -21366
   3796.00000000           5739          24602           9794          14363
   3800.00000000          28532          -2514         -15734          17435
   3804.00000000          30079         -15051           4238          22616
   3808.00000000          12657          13966         -10908         -24451
   3812.00000000         -36292          -5459         -30467           4039
   3816.00000000          14591         -24777          17468         -15165
   3820.00000000          -8421           7575          20274          20449
   3824.00000000           9396          21802         -19206          12933
   3828.00000000         -19433          18159          -8873          16769
   3832.00000000           -918          11134         -21548          17849
   3836.00000000          16780          -6489         -14463           8413
   3840.00000000           3223          10045           8602          13250
   3844.00000000          -8824         -29878          -3345          10763
   3848.00000000         -18896          -6646           5165           -635
   3852.00000000         -34446           3950          11625          20551
   3856.00000000         -34992          -1923          25357           2522
   3860.00000000         -13274           8639          -6375         -17404
   3864.00000000           2232           6284          24050          30076
   3868.00000000         -23391         -12401          14855          14906
   3872.00000000         -12571           5528         -32941           7346
   3876.00000000           3841          15142           5970            427
   3880.00000000           2914          -7265           8992           7874
   3884.00000000          14310          10762          -8612           7849
   3888.00000000           1239         -36576         -17959          15071
   3892.00000000          -9038         -28139          27967          -8494
   3896.00000000         -10013           6509         -22176          -2411
   3900.00000000          25421          -6479           -185            275
   3904.00000000          41691           -872         -10376         -14770
   3908.00000000           9003          -6506         -16788          14727
   3912.00000000          -8882          -3363           -906          -5213
   3916.00000000         -15956         -14889           2101          -8595
   3920.00000000          -1268         -22897          15744          15031
   3924.00000000          18547          -9831          11249         -15738
   3928.00000000          -5926         -14374         -10927          27268
   3932.00000000           -284           1242          18157             88
   3936.00000000          10607          -1169           1827          12453
   3940.00000000         -18605          17937           7427          -6915
   3944.00000000          37269           4506         -18377         -27520
   3948.00000000          31543         -10450          29929          10578
   3952.00000000           1753          -5196         -16561          -2801
   3956.00000000         -11961         -11542         -16362          27753
   3960.00000000         -19123           5487          32273           7055
   3964.00000000           -688           6592          -3441           1366
   3968.00000000          17299          14888          35835          17836
   3972.00000000          30532         -22817           8070           5027
   3976.00000000          16824          40375         -26100          17556
   3980.00000000           8092          -2720           4776          18012
   3984.00000000            965           -593          -8675         -24204
   3988.00000000          -3460          -9795         -17999          12083
   3992.00000000          -1521          -2864           1109           3929
   3996.00000000          18296         -10598            975          -5633
   4000.00000000           4255         -21146           -824         -16153
   4004.00000000          21824          19183         -23201          24789
   4008.00000000         -33603           1708          15634          11282
   4012.00000000          13172          18055           6240            198
   4016.00000000          -4330           3987          26599         -14341
   4020.00000000          11904          -5053          20649         -23689
   4024.00000000            461          -3916          -9598         -12333
   4028.00000000          -6687          -9161           6735         -32711
   4032.00000000          -8569         -11434          -7592           2622
   4036.00000000          -4908          -5172           9018           7659
   4040.00000000          -9109          -1473          18849          -2424
   4044.00000000           7555          28266          -5304           -225
   4048.00000000          11947          -5101         -15371          13784
   4052.00000000          -9099           5921            274          18284
   4056.00000000         -15592           9963            415          22219
   4060.00000000           2889          -8929           7041            547
   4064.00000000           6501           8885          14371          -7445
   4068.00000000          20464          -7312          -6149          11802
   4072.00000000           6916          12846          -9082          17629
   4076.00000000          -1522          -4077           6728           7650
   4080.00000000         -16558           3205          18670         -14639
   4084.00000000           3583         -23670          16594           4803
   4088.00000000          10123           6557           3152           7398
   4092.00000000          -8688          13352           5693           1952
   4096.00000000          20643           6191          -9739          -5377
   4100.00000000           8921           1898           9594           8172
   4104.00000000           5280          -7650          -7684         -13152
   4108.00000000          16461         -10535         -33232          -8328
   4112.00000000             66          17388          -7097          -9917
   4116.00000000           6749            622            564          -4192
   4120.00000000         -16501          -8643         -14185           4324
   4124.00000000           6813             46           6660          -9602
   4128.00000000          12479           9953           8528           1680
   4132.00000000         -11397         -13861           3040           1269
   4136.00000000         -16678           9865           9107          -2271
   4140.00000000           9833          -2888           2857          15331
   4144.00000000           3495         -12502            256          -1453
   4148.00000000          -5521          -3654          -5200           -615
   4152.00000000          -6636         -11825          -1343          -6525
   4156.00000000          -1647           7492         -10494          -3129
   4160.00000000          15059          -2055          -4309          -1684
   4164.00000000         -12528           2006           4142         -10791
   4168.00000000           4081           -706         -23020          -1759
   4172.00000000           2738          -7785          -2375          -6011
   4176.00000000          15837          -6682          10092            472
   4180.00000000           -487           1518           8818         -12297
   4184.00000000         -14866           2689         -17836         -20287
   4188.00000000          -3231          14198          13771           1709
   4192.00000000           5820             24          -4152          -5134
   4196.00000000           8418           5674          -4865          10723
   4200.00000000          -7798          -8463         -19210           2929
   4204.00000000          17054          -3099           8621          -3619
   4208.00000000          -3738           -930          -8392           -186
   4212.00000000          -3477         -13691          14819          -2294
   4216.00000000           6845           4249          -8753         -11044
   4220.00000000          12809         -10835           1073          16959
   4224.00000000          24774          -4568            326         -20540
   4228.00000000          10360           2998           -950           1495
   4232.00000000          14203         -12927          -1893            247
   4236.00000000           6190          -6706           2483           8221
   4240.00000000          16730           6152          -2531          15186
   4244.00000000           7428          23894           2740           4966
   4248.00000000          13137           1892         -21405          -5144
   4252.00000000          17434          16114          -7728          -1545
   4256.00000000           9872          -3401           9888          -6309
   4260.00000000         -12263          19987          -6337           2949
   4264.00000000         -13007            -26          22938           -463
   4268.00000000          -8556         -13828          -5938           6270
   4272.00000000          -3392           6300           -362           6151
   4276.00000000          -9916          11455          -1488          -8127
   4280.00000000           7662          -3363          -2959          -7518
   4284.00000000           4581          15225           2658          12756
   4288.00000000            868          22872           3469         -11499
   4292.00000000          18437          -2343         -10604           7588
   4296.00000000           1573           7169          -8100           3941
   4300.00000000          24062          -1334          10224          11045
   4304.00000000           -524         -13653            870           5480
   4308.00000000          -2174           7129          -3459           3532
   4312.00000000           3835          -4101          -2171           6220
   4316.00000000          11054          10966            -75          15408
   4320.00000000          -2293          12292         -18228          12375
   4324.00000000          -5915           3575          -3274          11826
   4328.00000000           1425         -10964           7703           1334
   4332.00000000          -3945           -900          -4218            808
   4336.00000000           -283           4180          15845          -7084
   4340.00000000          -2174         -12634           2111         -14932
   4344.00000000          -3630           4589         -10808          -8397
   4348.00000000           4151          10325           9668           1072
   4352.00000000          -1052            966           4721          15672
   4356.00000000           7184          -5256          18901           4893
   4360.00000000          -1808          -2563            596           7211
   4364.00000000           7913          15471          15895           8530
   4368.00000000          -6925           4006           6383          -2202
   4372.00000000           2271          -5178           2443          -8159
   4376.00000000           2887           7716           8906           7614
   4380.00000000           3284         -10287          10280          10112
   4384.00000000           3920          17539           3914           3228
   4388.00000000           6373          17856           5011           9365
   4392.00000000          12457           7103           7700           8844
   4396.00000000           9536            875          -1403           1896
   4400.00000000           8669           -921          -5644          13561
   4404.00000000          -1459          -7319          -3145           4808
   4408.00000000           -760         -12451          -2714           5816
   4412.00000000          -6275           9146          12650          -8809
   4416.00000000           8685           4674           3133           1743
   4420.00000000            969           -530          -6271          -4806
   4424.00000000          12103          25323          -2152          -9747
   4428.00000000          -7462           1293           1782           7935
   4432.00000000           1678           1766           2846           1992
   4436.00000000          -2190         -11219          -4739           -281
   4440.00000000            534          -7971           3838          -1578
   4444.00000000         -14412          -9168           3893            729
   4448.00000000          13116          -4081           6024          14001
   4452.00000000           5822           2753          -1370           1210
   4456.00000000          -6009           4759            -42           -510
   4460.00000000           3763         -13897           2712          10624
   4464.00000000          11549          -6949            243           4056
   4468.00000000         -12719           2041           8242          -4048
   4472.00000000          -3552          -3377          -3758          -4719
   4476.00000000          -4623           1122          -1245         -12955
   4480.00000000           4592           8721          -6590           1756
   4484.00000000         -14256          -7307            291           -528
   4488.00000000           2228         -10509           8127           2852
   4492.00000000         -13583           7771           5483           7525
   4496.00000000          -2867          -7579          -1997          -2113
   4500.00000000          10547           -454           7619           4505
   4504.00000000           4611          -2648           4128           -794
   4508.00000000          -5000          -5898          -2471          -2925
   4512.00000000           1259          -2341          -2490          -6810
   4516.00000000           2860           6168          -5331          -9347
   4520.00000000           8924           9746            749         -11111
   4524.00000000          -1588          -4754            661           6313
   4528.00000000           7942          -2005          -6539           -482
   4532.00000000          14028           2657          12092          -4032
   4536.00000000           8662          -3173            196           2194
   4540.00000000          -5461           3454          13539         -12472
   4544.00000000           4855          -7242          -8976           4679
   4548.00000000           4020           4825          -1821          12077
   4552.00000000          -4252           1284          -7694           5310
   4556.00000000           1318            799           -533           5889
   4560.00000000           4523          -1921           2385           4670
   4564.00000000          -9220          17880          -2498          -4839
   4568.00000000          -3336          -3812            188           2569
   4572.00000000             72          11555          -3445          -6215
   4576.00000000           2286           5185           7083           6713
   4580.00000000           6767          -1675           9799           4910
   4584.00000000           2548           5616          -7178          13351
   4588.00000000           -870           2005          10035           6155
   4592.00000000          -8096           3836          -3898           1021
   4596.00000000         -11592          -9302          -3889          -1066
   4600.00000000           2103          -2026           2404          -1086
   4604.00000000          -5617          -7568             26           7474
   4608.00000000          -9944          -2702          -5984           6239
   4612.00000000           7151          -2545           4258          -5395
   4616.00000000          -2277             54          -5823            596
   4620.00000000          -6441          -4722           2597           4607
   4624.00000000           4504           4251           5480          -6363
   4628.00000000          -2258           2380          -4751          -3033
   4632.00000000          11714          -3791             94           2846
   4636.00000000           6918           -265          -1787          11396
   4640.00000000           1881          -2568           7861          -2145
   4644.00000000           -578          -3114            796           9210
   4648.00000000          -3281          -9941            858           6949
   4652.00000000          -5485          -3073            138            728
   4656.00000000           3395          -4313           6189           -227
   4660.00000000           1751          -1650           3127          -1529
   4664.00000000          -3860          -5602           9742           -655
   4668.00000000           1228          -2322          -6026           -332
   4672.00000000           4378           -685           4144           1525
   4676.00000000           2441           5208          -1339           2390
   4680.00000000           8053           5740          -7470           8182
   4684.00000000          10319           6501          -2850           -242
   4688.00000000          -4695          -1793           9674           4515
   4692.00000000           1269           6430           2280           1737
   4696.00000000           1697           -262           5079          -3767
   4700.00000000           4253          -8149           -163          -4134
   4704.00000000          -2414          -6098          -2836          -8651
   4708.00000000          -4327          -3476          -1110          -7848
   4712.00000000          -2000          -4998           8055          -1143
   4716.00000000             60           5577             71           6782
   4720.00000000           5237          -7073           4000          -3593
   4724.00000000          -6260           3282            572          -3517
   4728.00000000         -11594           2325            -63           1995
   4732.00000000         -10343          -3232          -1792          -2838
   4736.00000000           6365           5081          -3184           4467
   4740.00000000           1967          -7253            416          -7174
   4744.00000000            757           1678          -9755         -11111
   4748.00000000          -2062           3099          -3068             94
   4752.00000000          -1875          -4659           4525           3881
   4756.00000000           8580           -483          -9062           -117
   4760.00000000          -2717          -5818           4182          -5084
   4764.00000000          -1393           2019           7315          -1460
   4768.00000000           2462          -8867            481          -2924
   4772.00000000           3420             56           1459            536
   4776.00000000          -3476          -1017           4519          -2815
   4780.00000000           5096             14           5446           3310
   4784.00000000          -1872          -4840          10230          -7313
   4788.00000000          11932           1881           -259           4238
   4792.00000000           2682           3103           2507           -948
   4796.00000000          -2668          -7752           6197           -856
   4800.00000000           2535          -2964           1365           5227
   4804.00000000          -1828          -4192           2853           3943
   4808.00000000          -1028          -4278          10343          -2281
   4812.00000000          -5013          -3641           3016           8452
   4816.00000000           1569          -5609          -1890           1500
   4820.00000000          10769         -10691           3403          -4368
   4824.00000000           -203          -2416           4385           1664
   4828.00000000           1204           7011           1504          -5900
   4832.00000000          -6460           4032          -2021          -7292
   4836.00000000            856           6345          -3262          -4342
   4840.00000000           -638          -8759          -6463          -2147
   4844.00000000           4901          -5362          -1958          -2900
   4848.00000000          -8427           6686           -665            647
   4852.00000000          -1656           -288           2937           4498
   4856.00000000          -1032          -1677          -1780           -434
   4860.00000000           -638           2616          -2649           2215
   4864.00000000           1347           2576             30          -1965
   4868.00000000           -343           -789           2506           4428
   4872.00000000           2712           3726          -2614           2714
   4876.00000000              3          -4138          -2339          -4841
   4880.00000000           5685           2869           4500           1895
   4884.00000000           1604          -1766           -609          -1370
   4888.00000000           3190           9291           9826            563
   4892.00000000          -6946          -6218          -3222          -3614
   4896.00000000          -6491           -348           1827           1319
   4900.00000000           4710           2186           4228           -888
   4904.00000000           2281           1217           2516           1781
   4908.00000000              1           1501          -5391           3401
   4912.00000000           5301          -4595             91           3046
   4916.00000000         -10444           -237          -4740            200
   4920.00000000           2363           1193           1759           5911
   4924.00000000           3589          -6243           1541           -408
   4928.00000000           3865            643           1632            578
   4932.00000000           -446           3749            958           4461
   4936.00000000           5948          -1906          -2539          -3493
   4940.00000000           6672           3729          -5044          -4995
   4944.00000000            462           1562          -1143           5966
   4948.00000000           -794          -8381           9347           4955
   4952.00000000          -1817          -1403          -1825          -1826
   4956.00000000          -2958           5650              3          -6504
   4960.00000000          -2688            751              2           3542
   4964.00000000          -2714          10443          -4882           -690
   4968.00000000            268          -2282           4686            888
   4972.00000000           -901          -3142           3885          -4469
   4976.00000000           2890           -417           -283          -1727
   4980.00000000            480          -2491           2972           2095
   4984.00000000          -2770          -2840           5175          -2703
   4988.00000000           -944           1283             71           1577
   4992.00000000           7032          -5730          -5774          -1987
   4996.00000000           7153           1685           -546          -1069
   5000.00000000          -1235           3127           -482           5530
   5004.00000000          -3062          -4279           2204          -3814
   5008.00000000           1814           2596           4058           7178
   5012.00000000            853          -1043           2662           2263
   5016.00000000           3252           1299          -3079           -693
   5020.00000000          -4075           2696           4515           2934
   5024.00000000             44           2756           -238          -2993
   5028.00000000           2202           1090          -2603            731
   5032.00000000           3055          -1432           7514            508
   5036.00000000           4153           1355          -6283          -3424
   5040.00000000          -3804           7950           1023           5439
   5044.00000000           1659           2656           3213           1268
   5048.00000000          -1935          -2298           1978           2774
   5052.00000000          -1737            919          -4795          -1098
   5056.00000000          -2210           2235           2795           5362
   5060.00000000           3033          -2461           3495            111
   5064.00000000          -3103           2596          -3501          -3437
   5068.00000000           2847            379           8588          -5969
   5072.00000000          -2196            677            -13             65
   5076.00000000           1453          -1911            622          -1525
   5080.00000000           3422           -779           3691           2922
   5084.00000000           3347          -5545            261           2207
   5088.00000000           5071          -2046          -2818           -361
   5092.00000000          -1031           4220           2714            314
   5096.00000000          -2504          -3018           4184          -2785
   5100.00000000           1923           -341           3464           1296
   5104.00000000            771            824            339          -2292
   5108.00000000           2927           -543           1702           5410
   5112.00000000            313           4520          -3103           1843
   5116.00000000           4815           2336          -2610          -2724
   5120.00000000            124            141          -2198           -623
   5124.00000000           2846           -410           6039            194
   5128.00000000          -2606          -3230             66          -2783
   5132.00000000          -1665           -537           2694          -1273
   5136.00000000           1592           2198           3350           2430
   5140.00000000           1335           2733            963           1135
   5144.00000000           -439           4233          -2348           5659
   5148.00000000           -574           2375           2160            613
   5152.00000000           -818            636             54           1841
   5156.00000000            419           5961           6741           7039
   5160.00000000           2161           2824           2662           1796
   5164.00000000           5402           2326           -635          -1941
   5168.00000000           3334           -217          -3796          -1304
   5172.00000000           1251          -1131           3802            217
   5176.00000000          -1258           2676            592           -757
   5180.00000000           -841           2025            456          -7246
   5184.00000000           3090          -1569           1766           2542
   5188.00000000           4652           1567           2857          -1602
   5192.00000000          -1902          -1654             98           1773
   5196.00000000          -5398           2919            -87             78
   5200.00000000           3857            250           3094           2541
   5204.00000000            317          -2975            615          -3848
   5208.00000000           4951           1716          -2226          -2898
   5212.00000000           3312          -5132           3122          -4375
   5216.00000000             66          -7607            135           2728
   5220.00000000           3638           -687           -611            653
   5224.00000000          -2554            156          -2015          -2561
   5228.00000000          -3869           1860          -3027             76
   5232.00000000           1074            329          -1281             -7
   5236.00000000          -5030            444          -1438            169
   5240.00000000           -727           1539           1173          -4605
   5244.00000000            239          -1827            -54            548
   5248.00000000           2398           2326           1895           -283
   5252.00000000            889          -3400           3944          -2960
   5256.00000000          -1705            -65           1125           1323
   5260.00000000           2240          -2159            525           -373
   5264.00000000           4447           3398          -2048            168
   5268.00000000           -472            966          -3501          -1291
   5272.00000000           -566             -7           3082           5619
   5276.00000000          -3350          -1422           1327          -2781
   5280.00000000          -1270            685          -5039           -272
   5284.00000000           -854           2626            -16           -630
   5288.00000000          -1943          -1671          -1240          -3509
   5292.00000000           1268          -3281            908          -1465
   5296.00000000           4347           -537           1378           -521
   5300.00000000           3114           4097          -2261           6540
   5304.00000000          -1837           2079          -1264           1778
   5308.00000000           1233            749           3792           1662
   5312.00000000          -1408          -6691           3758            676
   5316.00000000           -139           3468          -1104          -2055
   5320.00000000           1292           1015            170          -2239
   5324.00000000            788           -918           1919          -2524
   5328.00000000            545          -3548          -1622           5119
   5332.00000000          -2943          -2638          -3502           2771
   5336.00000000           -588           3033           1342           2018
   5340.00000000          -2939           1153            794           1226
   5344.00000000          -1063           3642          -3415           -124
   5348.00000000          -2424           1031            427            798
   5352.00000000           3761          -2629          -2109          -1722
   5356.00000000           2489           1486           2723            118
   5360.00000000          -3970           -263          -2138           2805
   5364.00000000          -1266          -1326           4057           -726
   5368.00000000           3955           2990           -764           3126
   5372.00000000            895           2897           -730           2976
   5376.00000000           -256            302            -18          -2151
   5380.00000000            406           -871           -172           -217
   5384.00000000           -280           1359           -990          -2249
   5388.00000000          -1097             65           -177          -3704
   5392.00000000            720          -3181           2332           2702
   5396.00000000            626          -2441           3651            292
   5400.00000000           1296           3852           1731           1642
   5404.00000000          -3386             93          -4114           -401
   5408.00000000             40           -695            131           -717
   5412.00000000          -1175            501           -616           3424
   5416.00000000           2050           -101           1997          -1358
   5420.00000000          -1385          -1049           -219             65
   5424.00000000           1000            546           -453            466
   5428.00000000           3487           2777           1142           -104
   5432.00000000           2774          -2005          -1822           1860
   5436.00000000           2793           -855          -1853            330
   5440.00000000          -1019           1968           2946           1835
   5444.00000000          -2100           3734           2122          -1386
   5448.00000000           2616           -835            602            284
   5452.00000000          -1595            775          -1488           2927
   5456.00000000          -3231           2330            911            675
   5460.00000000           1843           -425            116            330
   5464.00000000          -2172           2086            -51            145
   5468.00000000            928          -1005           -794            428
   5472.00000000           1217          -2243            503           -382
   5476.00000000            375           2550           1288           -862
   5480.00000000            541           3231            -78          -1789
   5484.00000000           3476            484          -1684           -123
   5488.00000000           3527           2796          -1474           2580
   5492.00000000           2541            964           4267            656
   5496.00000000           3077            503           3184           -126
   5500.00000000          -3389           4486            495           -371
   5504.00000000           2150            751          -1557           2397
   5508.00000000           -259          -1205           -885           1373
   5512.00000000          -1360          -1842           1103          -2210
   5516.00000000           3926          -2331            726           -757
   5520.00000000           1912           2392           1535            409
   5524.00000000           1414          -1799           -245           1226
   5528.00000000           -538           1616          -2082            192
   5532.00000000          -3338           1240            882           -542
   5536.00000000          -2537           2620           1987            882
   5540.00000000            327          -1160             63           -182
   5544.00000000          -2687          -3069           1275             98
   5548.00000000           -617          -2140           -107           -357
   5552.00000000            829            329           2021           3214
   5556.00000000           -936          -2402           3134          -2814
   5560.00000000           -458           1348          -1946           -590
   5564.00000000            383            681           2935           1953
   5568.00000000           -708           4204           1799          -1595
   5572.00000000           3560          -1490          -2789           -339
   5576.00000000            782            114           1693          -1159
   5580.00000000            689           -352           -200          -1320
   5584.00000000           -492           -871           2144           -726
   5588.00000000           1746          -1086           1183           2251
   5592.00000000           2470            941           -647           2188
   5596.00000000            764            732           1651          -1866
   5600.00000000           -966           -836            601            367
   5604.00000000           3601            199           -198            996
   5608.00000000          -1173            -42           2162           -283
   5612.00000000          -1168           -702           -836            619
   5616.00000000           1563           1118           3288           1593
   5620.00000000           -381           2792          -1117          -2227
   5624.00000000           1472           1618          -1165            911
   5628.00000000           1522          -1151           1715           -837
   5632.00000000           2721           1992            401           -346
   5636.00000000          -1718              9            575           2762
   5640.00000000          -2693            -90           -726           1129
   5644.00000000           1538           2492           2516           -866
   5648.00000000           -181           -842           -221           1815
   5652.00000000           2162           -111           1592           1407
   5656.00000000          -1619           -144             86          -3981
   5660.00000000           -645            493           -169          -2053
   5664.00000000           -861          -1755           -573            699
   5668.00000000           -550            549           1290           1171
   5672.00000000           -974            509           1584            951
   5676.00000000          -1936           -948           1712          -2408
   5680.00000000            548           2469          -2219            302
   5684.00000000           1231            737          -1146           -538
   5688.00000000          -2532             65          -1725            441
   5692.00000000            229            823          -1771            683
   5696.00000000            575          -1142           1755           -513
   5700.00000000           1110           -841           -545           1111
   5704.00000000          -2183            357          -1252           1794
   5708.00000000           -626            701           1369            347
   5712.00000000           -741           -509           2503          -1769
   5716.00000000           2846          -1102            191          -1384
   5720.00000000           -450           2033            979            117
   5724.00000000          -1050          -1754          -1441          -1965
   5728.00000000           1809          -1181           1370          -1671
   5732.00000000          -1746          -1926            -76           -738
   5736.00000000           -380           -549           1312           -316
   5740.00000000           -395           2557           -416            856
   5744.00000000           1502           -429           -892           1553
   5748.00000000          -1731           2210           1203           -164
   5752.00000000          -1092           -316            345          -1317
   5756.00000000             -6          -1230           -926            109
   5760.00000000            837            688           -592          -2421
   5764.00000000             64          -1800           1100            -98
   5768.00000000            877           -984            100           1930
   5772.00000000           -134           1954          -1079           1054
   5776.00000000          -1363           -134           1054           2815
   5780.00000000           2811            636           -500          -3322
   5784.00000000          -2150           1194           1467            -26
   5788.00000000          -2962          -2249           -711            162
   5792.00000000           -673           -904           -895            349
   5796.00000000           1566            281            685          -1301
   5800.00000000           1035           -306           -778          -2052
   5804.00000000             22            724           2515          -2142
   5808.00000000            360           -592           -634           1175
   5812.00000000            262           -988           -722           -394
   5816.00000000          -1578           1849           -689            548
   5820.00000000          -1000          -1155           -733            111
   5824.00000000          -1901           1090            694           -113
   5828.00000000           -184           1223          -1698            217
   5832.00000000           -353           -120            713           -926
   5836.00000000           -319            841           1024           -210
   5840.00000000           1337           -540           1015           1384
   5844.00000000            986           1462            538           1521
   5848.00000000          -1157           1048           1678          -1715
   5852.00000000            318           -340           -423            542
   5856.00000000           -208           -299           1100            706
   5860.00000000          -1636            643           -850            798
   5864.00000000          -1027           1116            -77           -965
   5868.00000000          -2239          -1895           -145           1762
   5872.00000000           1724           -438           -736          -1673
   5876.00000000           1179            431           1017          -2512
   5880.00000000            393           2129           -466           1323
   5884.00000000           -168          -1361             58           -517
   5888.00000000          -1341           -398           1332          -1103
   5892.00000000           -236            998           1265           -178
   5896.00000000           -244           -300           1335           1270
   5900.00000000          -1147            691           -462           -646
   5904.00000000            579           1001             92            -88
   5908.00000000           1373           -219            898          -1442
   5912.00000000          -2608            804          -1903           -976
   5916.00000000            944            330           -728          -1245
   5920.00000000            352            686           2023           1159
   5924.00000000           -885            676           1068           1146
   5928.00000000           -166           1998          -1115           -251
   5932.00000000           -336           1806           -355          -1391
   5936.00000000            724           -206           -828            582
   5940.00000000           -763           1026          -1305           -352
   5944.00000000          -2604           -546          -1069            -86
   5948.00000000          -1929            681            256            -43
   5952.00000000          -1850            390           -639           1544
   5956.00000000          -1075           -266           1140            253
   5960.00000000            269          -1177           -733            515
   5964.00000000          -1561            440           1388            819
   5968.00000000          -1213           -431            141           2058
   5972.00000000          -1059           1235           -377          -1011
   5976.00000000           -401             39            671            565
   5980.00000000           -312           1037           -607          -1047
   5984.00000000           -322            -87            -78           -168
   5988.00000000           -184            370            -14            570
   5992.00000000           -436           -565          -1452            255
   5996.00000000             17          -2584            -13             17
   6000.00000000            317           -340            970           -339
   6004.00000000            690           -322           -882            -86
   6008.00000000            734           -342          -1656            916
   6012.00000000          -1241            780           -207           -749
   6016.00000000            479           1508          -1264           -560
   6020.00000000            236           1449           -496           -699
   6024.00000000          -1442            -59           -340           -582
   6028.00000000           -333            465            890           -551
   6032.00000000           1443              4           -748            203
   6036.00000000            -95            869            300          -2090
   6040.00000000            258            928           1512            928
   6044.00000000           -236           -179           -130            746
   6048.00000000          -1307            399            400           -830
   6052.00000000            250            204           -430           -970
   6056.00000000          -1108            878          -1310           -346
   6060.00000000           -117           -203             85           -291
   6064.00000000           1301             85             -7          -1158
   6068.00000000           -494            297          -1091          -1139
   6072.00000000            718           -686           -520              9
   6076.00000000           -784           -529           -905          -1382
   6080.00000000            687           -646           -602           -437
   6084.00000000            877          -1801           -393           -538
   6088.00000000           1592           -411           -630            563
   6092.00000000            -29            509            195           -806
   6096.00000000          -1034           1134            997           -493
   6100.00000000           -206              5           -295            471
   6104.00000000            572          -1077           -849           -405
   6108.00000000            207           -902            -11           -377
   6112.00000000           -985           -379            398           1275
   6116.00000000            139           1057            846            793
   6120.00000000           1621            751             71           -876
   6124.00000000            266           1530           -380           -631
   6128.00000000             85            558            110           1376
   6132.00000000            161           -509           1268            532
   6136.00000000           -987           1295           -778            786
   6140.00000000           -563           -296           -397            -66
   6144.00000000           -130            795           -437            488
   6148.00000000            304           -366           -304           1138
   6152.00000000           -168            306              5            975
   6156.00000000            866           -121            798           1638
   6160.00000000            -16           -694           1361           -209
   6164.00000000            638            664           1105           -448
   6168.00000000           -547            289           -461            158
   6172.00000000          -1288           1400            326            670
   6176.00000000           -206           -584           -481          -1043
   6180.00000000            869           -149          -1236           -364
   6184.00000000            730           -177          -1105           -776
   6188.00000000            422           -371            978            538
   6192.00000000           1282            -51           -589            -23
   6196.00000000          -1966           -195            721            822
   6200.00000000          -1060           -663            573           -128
   6204.00000000            124           1173           -318            738
   6208.00000000           -458             92            312            908
   6212.00000000           1018            998            455           -480
   6216.00000000           -713            155           -584            903
   6220.00000000           1049           -385            -56            522
   6224.00000000           -604            392           -724          -1427
   6228.00000000            857           -159             18             77
   6232.00000000            110           -870           -932            -42
   6236.00000000            268           -776           -654           -652
   6240.00000000           1971           -265           1406            131
   6244.00000000            845            517            -92            343
   6248.00000000            927              6            927           -185
   6252.00000000            -22            405          -1058           -245
   6256.00000000            155           -952            567             27
   6260.00000000           -160           -723            -87            845
   6264.00000000           -506            225           1319            329
   6268.00000000            691           -111           1418           -633
   6272.00000000            832           1045            -41           1178
   6276.00000000            544            747            296            983
   6280.00000000            114            211           -558          -1048
   6284.00000000            205           -505            -58           1418
   6288.00000000            111            939           -407           -532
   6292.00000000           -562            463           -684           -528
   6296.00000000            806            414            598            427
   6300.00000000           -530            358           -883            371
   6304.00000000            226            827          -1067             43
   6308.00000000            488            160           -221            427
   6312.00000000            206            584           -639            432
   6316.00000000             51            414            829            -28
   6320.00000000            342            352            442            406
   6324.00000000            392            324            394            860
   6328.00000000            543            337            275           -433
   6332.00000000            230             54           -726            364
   6336.00000000             59            494            431            757
   6340.00000000          -1160            326           -363             45
   6344.00000000            418           -156            928            195
   6348.00000000           -363            379            991           -205
   6352.00000000           1074            516           -242           1485
   6356.00000000            573           -724           -346            -62
   6360.00000000            205            174           1039           -237
   6364.00000000           -201           -468           -621             79
   6368.00000000            486           -950            259            354
   6372.00000000            705            435             98           -406
   6376.00000000            -72            971            665           -802
   6380.00000000           -335           -363            544            -67
   6384.00000000            504           -299           -288             15
   6388.00000000           -709             -3           -207            501
   6392.00000000            291            -59           -569            -69
   6396.00000000           -564            483           -128           -583
   6400.00000000            680            632           -112            984
   6404.00000000           -846            751           -228            246
   6408.00000000           -115           -333            819             38
   6412.00000000           -105           -155           -305          -1033
   6416.00000000            421           -344            218            331
   6420.00000000           -418           -300           -303            152
   6424.00000000           -699           -542            922           -345
   6428.00000000             53           -552            469           -469
   6432.00000000           -922            -94           -212            597
   6436.00000000            -66             -5           -226           -637
   6440.00000000           -437            878            405            561
   6444.00000000           -313           -261           -225           1164
   6448.00000000            351             31            333           -434
   6452.00000000           -820           -607              4           1086
   6456.00000000            174           -504           -265          -1157
   6460.00000000           -682            734            162            856
   6464.00000000            320            808            899             53
   6468.00000000            -79            294           -462            520
   6472.00000000            621            284           1602            197
   6476.00000000           -391          -1165            657            112
   6480.00000000           -138             77            119            233
   6484.00000000            -12             53           -424            990
   6488.00000000            239            494            101           -986
   6492.00000000           -353            674           -116            747
   6496.00000000           1058            278            591           -622
   6500.00000000            172           -443           -831             12
   6504.00000000           -105            534           -452           -149
   6508.00000000           -632            361            123            136
   6512.00000000            524           -151            257            -80
   6516.00000000            349           -136           -389           -312
   6520.00000000            119           -233           -353            610
   6524.00000000           -716           -777            923            203
   6528.00000000            -18           -876            772             50
   6532.00000000            451             56             45             72
   6536.00000000           -125            736           -341           -375
   6540.00000000           -125            226             63            453
   6544.00000000             96             59            701            464
   6548.00000000           -349            314           -401            -13
   6552.00000000           -396            283           -140            158
   6556.00000000           -916            294            307            416
   6560.00000000            199           -266           -334            699
   6564.00000000           -373            516            160            131
   6568.00000000            249           -647            360           -640
   6572.00000000             57             24            246           -697
   6576.00000000            930            303            -28            -12
   6580.00000000            -71           -286             87           -615
   6584.00000000            240            280           -197           -257
   6588.00000000            194            584            209            445
   6592.00000000           -374            -27           -371            -25
   6596.00000000            -43           -564            174            360
   6600.00000000            125           -411            254           -303
   6604.00000000           -666           -417           -207            399
   6608.00000000            217            284            428            -55
   6612.00000000            464            487            350           -619
   6616.00000000           -319            133           -373            -45
   6620.00000000             88           -157           -301            144
   6624.00000000           -194            -40            555           -170
   6628.00000000           -199            205           -216            181
   6632.00000000             69            188             -9            397
   6636.00000000            220           -394           -128           -301
   6640.00000000            101           -199            307           -385
   6644.00000000            -23            471            208             96
   6648.00000000             59           -474           -445            428
   6652.00000000            -63            782            498           -259
   6656.00000000           -433            -72           -161           -341
   6660.00000000           -484           -498            244            403
   6664.00000000            385           -690           -482           -223
   6668.00000000           -552            178            634            214
   6672.00000000           1094           -269             30            131
   6676.00000000            281            184            -83           -316
   6680.00000000            361           -200             -3           -339
   6684.00000000           -340           -241            -78            -80
   6688.00000000           -342             65            559            247
   6692.00000000           -259           -269           -273           -200
   6696.00000000            486           -268           -464           -222
   6700.00000000            134           -433             91           -322
   6704.00000000            413            175           -269           -771
   6708.00000000             47           -365            -59           -495
   6712.00000000            116             66           -256            279
   6716.00000000           -121            -73            293            312
   6720.00000000            313           -105             28            -79
   6724.00000000            -12            340             42            567
   6728.00000000           -106           -228            531            -57
   6732.00000000            266           -271             59            749
   6736.00000000            -71            249            381             60
   6740.00000000           -144           -409           -306            319
   6744.00000000            174            101           -220            180
   6748.00000000            407            246           -183           -381
   6752.00000000            -91            330            200            -54
   6756.00000000            460           -481            -46             71
   6760.00000000             30            -43            366            111
   6764.00000000           -418           -200           -174           -140
   6768.00000000             51           -593            -93           -292
   6772.00000000            478            185            150           -341
   6776.00000000            366            418            220            -10
   6780.00000000            549            266            -12            732
   6784.00000000            655           -259             19             13
   6788.00000000           -625             21            277            303
   6792.00000000            -30           -464           -147            -97
   6796.00000000            -82           -279            142             15
   6800.00000000            158            193           -278            691
   6804.00000000           -251             91            187            250
   6808.00000000             93            245             22           -424
   6812.00000000           -103             -3            -43            -70
   6816.00000000             97           -331           -183           -319
   6820.00000000           -112             60           -869           -202
   6824.00000000            321           -332           -502           -132
   6828.00000000            710             25            153            752
   6832.00000000           -396           -157           -344            348
   6836.00000000            470           -664           -156           -417
   6840.00000000           -232           -417            458            355
   6844.00000000            383            214           -387            -47
   6848.00000000           -360            356            144           -479
   6852.00000000           -195            -47           -185           -135
   6856.00000000           -196           -261           -418            358
   6860.00000000           -226            153            122            174
   6864.00000000            456             18           -442            -81
   6868.00000000           -298            208             24            409
   6872.00000000           -266            -90           -104            147
   6876.00000000           -373            155           -193           -296
   6880.00000000            453           -141           -428             73
   6884.00000000           -140            136           -199            145
   6888.00000000           -285           -384            321           -179
   6892.00000000            -57            -56             48            438
   6896.00000000            253            273            -73            248
   6900.00000000           -659            206           -251           -487
   6904.00000000            264            161           -265           -106
   6908.00000000            486            246            329            318
   6912.00000000            187             58            -84            298
   6916.00000000           -209           -100           -277           -181
   6920.00000000            -25           -130            531            -73
   6924.00000000           -116            223             64           -243
   6928.00000000            641            348            384              8
   6932.00000000            562             12           -350           -643
   6936.00000000           -312             30             27             41
   6940.00000000            -78            -70            -82            526
   6944.00000000            187            -47           -606            347
   6948.00000000            152            142            370           -182
   6952.00000000            161             61            460           -523
   6956.00000000            140           -285            -29            163
   6960.00000000            -82             80            156             41
   6964.00000000            -24           -398           -226           -115
   6968.00000000           -335            165            -98           -320
   6972.00000000            241            -80           -450           -243
   6976.00000000           -208            387            454           -194
   6980.00000000           -375            149            -77            -52
   6984.00000000           -243           -194           -308            359
   6988.00000000            -43             90             10             14
   6992.00000000             97           -199            173             31
   6996.00000000            496             77           -490           -124
   7000.00000000             24           -337           -277           -203
   7004.00000000           -210              4            -70            105
   7008.00000000            -87           -250           -270           -297
   7012.00000000            -59           -134           -117           -284
   7016.00000000           -342              9            317            -16
   7020.00000000           -184           -258            -85           -152
   7024.00000000            186              7             26            -81
   7028.00000000            169             25             14            543
   7032.00000000            496            -49            -68           -215
   7036.00000000            206             13            329            239
   7040.00000000             93            -46            -63           -308
   7044.00000000            348            -60            370            -18
   7048.00000000            318           -292            226           -208
   7052.00000000            139           -124             48           -134
   7056.00000000           -112             10             11            273
   7060.00000000           -171            271            256            -30
   7064.00000000            244            544           -181            -48
   7068.00000000            142            220            149           -117
   7072.00000000              7           -131           -109            103
   7076.00000000           -281           -345            -62            124
   7080.00000000            303           -206             38           -310
   7084.00000000            177            373           -202            439
   7088.00000000            101           -113           -125            225
   7092.00000000           -129           -195            249            229
   7096.00000000            154            -84            159            -38
   7100.00000000            235            253            -45           -138
   7104.00000000           -144            122           -165            -54
   7108.00000000             30           -489           -231              4
   7112.00000000             89           -127            132            265
   7116.00000000           -350           -179            163             26
   7120.00000000           -232           -236            -70             50
   7124.00000000           -216           -304             93            153
   7128.00000000           -113            269           -385            209
   7132.00000000             87             25           -554            -39
   7136.00000000           -300            171           -178              2
   7140.00000000            -38            396           -286           -223
   7144.00000000           -225             40            -13             70
   7148.00000000            -38             33            268             95
   7152.00000000            502            -40           -217            101
   7156.00000000           -109             28             54            187
   7160.00000000           -185            -33           -109            -21
   7164.00000000            117           -167            -93           -192
   7168.00000000            -55           -329           -472              4
   7172.00000000            123            -69           -168            146
   7176.00000000             83           -113             -9           -153
   7180.00000000              1            -31             28            -26
   7184.00000000            -82             -3            -62           -142
   7188.00000000            -22             11             -1            231
   7192.00000000           -176           -235           -323            -30
   7196.00000000            -79             13             -0           -101
   7200.00000000             64           -157             28            -11
   7204.00000000           -172            444            -74            280
   7208.00000000            -47           -246            115            324
   7212.00000000           -154            186            215           -312
   7216.00000000            233           -243           -150             -4
   7220.00000000            -43           -421            -95           -207
   7224.00000000            104           -153            118             18
   7228.00000000           -328             85            167            -78
   7232.00000000            -39              6            -12             48
   7236.00000000            -22           -147            288            -21
   7240.00000000            268           -158            -29           -162
   7244.00000000            301            208            -74            -58
   7248.00000000            137            148           -318           -233
   7252.00000000            226           -234             42           -197
   7256.00000000           -160           -235           -277            314
   7260.00000000            -54            194           -204             36
   7264.00000000            -75             78           -173           -230
   7268.00000000           -157            131             29              6
   7272.00000000            -45           -300            -12            -32
   7276.00000000             34             34             44           -100
   7280.00000000             -9           -102           -129            -84
   7284.00000000           -319           -220            -62           -200
   7288.00000000            -85            -98           -111            -17
   7292.00000000            -54             89            -28           -186
   7296.00000000             88            231           -147           -110
   7300.00000000             94            315            -42           -133
   7304.00000000           -245           -156            -75            121
   7308.00000000           -141             83            -74             73
   7312.00000000            129            155           -214             75
   7316.00000000            -35           -242            -14           -178
   7320.00000000             -9             94           -184           -232
   7324.00000000             34            -59             71            236
   7328.00000000            163             76             -1           -151
   7332.00000000           -165           -210             52           -168
   7336.00000000             63           -112           -138           -255
   7340.00000000            -59           -193             36           -132
   7344.00000000             88           -182            180             88
   7348.00000000            189           -195            263            110
   7352.00000000            115            243             35            -68
   7356.00000000            188            141              3           -199
   7360.00000000             -0            -59            151             75
   7364.00000000             82            126            164           -139
   7368.00000000            252             45             15            248
   7372.00000000             45             78            115           -114
   7376.00000000            116           -210             28             70
   7380.00000000            -99             80             26             53
   7384.00000000           -336            308            -83             38
   7388.00000000            117            -97             23            148
   7392.00000000             80            -33            171            139
   7396.00000000            -99            144            -37           -140
   7400.00000000            -36             88            -68             60
   7404.00000000             -8             97            191            211
   7408.00000000             64            -71             77           -164
   7412.00000000            115            166            181            -84
   7416.00000000           -114            170           -270            148
   7420.00000000            -15            221            187             -1
   7424.00000000           -291            -89             48            -43
   7428.00000000             57           -196             40             42
   7432.00000000            164            101             54           -101
   7436.00000000           -128           -100            152              5
   7440.00000000            214             10            257           -199
   7444.00000000            -36           -389           -126              9
   7448.00000000            189              7            -36           -204
   7452.00000000            -51             69            -70            -62
   7456.00000000           -122             -4            -35           -137
   7460.00000000            239             20            -22            -52
   7464.00000000           -106           -173            -20             35
   7468.00000000            -33             80           -298            -77
   7472.00000000           -236           -153             85            -83
   7476.00000000              3             -8           -178             65
   7480.00000000             56           -157            -58            -60
   7484.00000000             81           -183            -56            274
   7488.00000000            -69           -163              9             70
   7492.00000000           -226             65             14              5
   7496.00000000             83            -76           -161              5
   7500.00000000             99           -227             51            -41
   7504.00000000            -55           -288            -15            -96
   7508.00000000            151             95           -252           -100
   7512.00000000            137            -64           -125            148
   7516.00000000           -305             20             -6            -11
   7520.00000000            139             71             82            148
   7524.00000000             54            -33            137             17
   7528.00000000            276              7            -17            219
   7532.00000000            282            153            -13            -31
   7536.00000000             11              1            -76           -139
   7540.00000000           -101            144              4            142
   7544.00000000              9            -53             71            -43
   7548.00000000             74            -81           -136            232
   7552.00000000           -320            -12            -27            -87
   7556.00000000            -23             48            123              0
   7560.00000000             99            -57            219            148
   7564.00000000             20            114             73             -5
   7568.00000000             99             72            -50           -184
   7572.00000000            238           -111              7            106
   7576.00000000            -99             85            -45            -24
   7580.00000000            -52            115            -60           -160
   7584.00000000            -31            -59             55            141
   7588.00000000            159              3            -51           -203
   7592.00000000            197            145            -85            -21
   7596.00000000             64            -65             39            -85
   7600.00000000             90           -110             45             59
   7604.00000000           -272             31            208            -45
   7608.00000000             82              7           -197            -96
   7612.00000000            140             57             21           -323
   7616.00000000            -84           -194            128            -28
   7620.00000000           -151            133              5            -31
   7624.00000000            125           -144             59            -71
   7628.00000000            164              1            -19             68
   7632.00000000             45            -25            136            112
   7636.00000000              3             64            -19             86
   7640.00000000             58            149            -78            -50
   7644.00000000             82             49           -116             52
   7648.00000000            -73           -111            177            115
   7652.00000000             73            -75            -69             -9
   7656.00000000           -168            124             85           -266
   7660.00000000            -23             39           -175             80
   7664.00000000           -191            -93            -31             95
   7668.00000000            -91            131             31           -213
   7672.00000000            -13            153            -37             30
   7676.00000000            -42             56           -104             43
   7680.00000000             76           -165             46             49
   7684.00000000           -154             44            -53            -47
   7688.00000000             53           -184            153            -25
   7692.00000000            -97             14             89             40
   7696.00000000              3             74           -145            -49
   7700.00000000           -143            -43            -87             44
   7704.00000000            154             91            -45             50
   7708.00000000             85            -46           -146             80
   7712.00000000            -79            -95            -75            153
   7716.00000000            -44             11            105             54
   7720.00000000              5           -184            184             69
   7724.00000000            -10             13             52           -186
   7728.00000000            -79             75            158           -125
   7732.00000000            -92             -9            -73             34
   7736.00000000            -56           -141            101             79
   7740.00000000            100            -74             -6            -98
   7744.00000000            166            148              6            -79
   7748.00000000            -92             16            -81            -25
   7752.00000000            -47             37            -62            -23
   7756.00000000            -28           -127            -82           -118
   7760.00000000            -59            -20           -108            -98
   7764.00000000             -5           -129             33              6
   7768.00000000           -171           -179            162             84
   7772.00000000            119            -82            -51            -79
   7776.00000000            -50            -74            -30            111
   7780.00000000             17            -24              2           -115
   7784.00000000            -49            -20           -142            -52
   7788.00000000            102              9              9           -173
   7792.00000000             22             81            130             28
   7796.00000000            -95             40           -233             42
   7800.00000000           -113           -196            -34           -130
   7804.00000000            114            171            -30            162
   7808.00000000             54            -20            -64           -152
   7812.00000000            -97            177             33            -79
   7816.00000000            196              8             30           -164
   7820.00000000              8            -43           -140            -59
   7824.00000000             54            108            -64              7
   7828.00000000             -7           -118            -53             38
   7832.00000000            -19            -95            -24            -88
   7836.00000000             52             74            -54            -52
   7840.00000000           -108            -18             40              9
   7844.00000000            -52            -67            -10            -51
   7848.00000000             -2            -22            -68           -125
   7852.00000000            -79           -186             68            -59
   7856.00000000             71           -170            -16            -18
   7860.00000000            -29           -122            -88              1
   7864.00000000            -19             25             43            -40
   7868.00000000             -8            -22             34             -3
   7872.00000000            -69            -13             67           -294
   7876.00000000              9             22            -56             32
   7880.00000000             -1           -135            -96             61
   7884.00000000             28           -125            -65            -19
   7888.00000000           -119             -4            -91             54
   7892.00000000            -67            -46             -2             82
   7896.00000000            168           -120              2              5
   7900.00000000             85             61             76             -1
   7904.00000000            184            120             41             26
   7908.00000000             99            -37            -17            -58
   7912.00000000            -27           -174            134            -33
   7916.00000000             62            155             56             70
   7920.00000000            147             20            151             35
   7924.00000000           -113             43              3           -109
   7928.00000000            -73             95            -91            -20
   7932.00000000            -53            -88            -10             15
   7936.00000000            -38             47            -94             84
   7940.00000000            -10            -29            116            -30
   7944.00000000             27             39            112              5
   7948.00000000            -95             22           -175             53
   7952.00000000            -17            -95            -81            104
   7956.00000000             60             20              4             54
   7960.00000000            -72             17            -45             31
   7964.00000000             17            123            -31              6
   7968.00000000             88             19            -25            -17
   7972.00000000             31           -100            -42              8
   7976.00000000            -46            -15             14            -46
   7980.00000000             16             52             33             78
   7984.00000000             60            -75             13             16
   7988.00000000            -23             28            -40           -102
   7992.00000000             59            104            -19             42
   7996.00000000              2            -23            -93             -1
   8000.00000000             46            -22            -71            -75
   8004.00000000            -81            -88             53            100
   8008.00000000            -17             32            -22           -158
   8012.00000000           -111            -28            111            -35
   8016.00000000              6            -18             70             -4
   8020.00000000            -82             14            -35            120
   8024.00000000            -24             43            -46            -31
   8028.00000000            -47             52            -45            -53
   8032.00000000            -92            -44             29             73
   8036.00000000            -16             24             -9            -29
   8040.00000000             40           -103            -17             67
   8044.00000000             90            -21             31            -35
   8048.00000000            -93             72             68            -19
   8052.00000000             39             18             14             -6
   8056.00000000             41             43            -40             17
   8060.00000000             70             81            114            -16
   8064.00000000            -16             19             39            -32
   8068.00000000              1            -38             65             -3
   8072.00000000             20            -70             53             35
   8076.00000000             16            -68            -70             24
   8080.00000000            -17              3            -23            -26
   8084.00000000            130             42            -61            -65
   8088.00000000             87            -47             -5            -10
   8092.00000000             58             46            -43            -23
   8096.00000000             74             83            -98            -75
   8100.00000000            -15             49            -14             73
   8104.00000000           -122             54             -1             -7
   8108.00000000             11             66             19             -4
   8112.00000000             23             27            -46            -34
   8116.00000000            -63            -33             42            -19
   8120.00000000             96             24             18            -35
   8124.00000000             -1             -0           -101            -32
   8128.00000000             83            -19            -18            -58
   8132.00000000            102             -2             56             32
   8136.00000000             -8             -7            -29              6
   8140.00000000             95              9             43            -13
   8144.00000000            -24            -35            -80             38
   8148.00000000            -54             92             53             59
   8152.00000000            -18            -80             19             11
   8156.00000000            -76             22            -52             99
   8160.00000000            -53             72           -131             -4
   8164.00000000             58              1             23            -21
   8168.00000000             35            -54             29            -55
   8172.00000000             61            -25             39             65
   8176.00000000             44             12            -43            -75
   8180.00000000            -37            -70              7             15
   8184.00000000            -64             50             23             18
   8188.00000000             -1            -50             17            -20
##END NTUPLES=NMR FID
##END=
