##TITLE=CEC-PhSi2-flow(sequence-1130)-06-09-26
##JCAMP-DX=5.01 $$ Nanalysis NMReady v2.2.5.1
##DATA TYPE=NMR FID
##DATA CLASS=NTUPLES
##ORIGIN=Nanalysis Corp.
##OWNER=Nanalysis
##LONG DATE=2026/06/09 11:36:54-0400
##SPECTROMETER/DATA SYSTEM=NMReady 60/nanalysis-X542
##INSTRUMENTAL PARAMETERS=^1H
##TEMPERATURE=32.999993
##PRESSURE=1.000000  $$ Bar
##RESOLUTION=0.00001999999949
##SAMPLE DESCRIPTION=None
##.OBSERVE FREQUENCY=60.55082452533694
##.OBSERVE NUCLEUS=^1H
##.SOLVENT NAME=Toluene
##.ACQUISITION MODE=SIMULTANEOUS
##.SHIFT REFERENCE=INTERNAL, Toluene, 4096, 5.00000000000000
##.SOLVENT REFERENCE=5.00000000000000
##.PULSE SEQUENCE=1D
##.DELAY=(0.000000,0.000000)
##.FIELD=1.422199  $$ Tesla
##.OBSERVE 90=15.789399
##.ACQUISITION TIME=6.55279983446235
##.ZERO FILL=0
##.AVERAGES=4
##.DIGITISER RES=16
##.SPINNING RATE=0.000000
$$##.PHASE 0=-20.00000000000000
$$##.PHASE 1=79.00000000000000
$$ NMReady specific parameters
##$SCANS=4
##$SCAN DELAY=1.000014
##$TOTAL DURATION=31.338313
##$X_PULSE=14.210050
##$RECVR_GAIN=12
##$SWEEP WIDTH=20.000000
##$RELAXATIONDELAY=1.280964
##$ZEROING=7.000000
##$APODIZATION=0.030000
##$PHASECORRECTION=-20.000000,79.000000
##$PIVOT=0.000000
##$DT=0.000020
##$LOCKOFFSET=2.080000
##$SPECTRALCENTER=5.000000
##$DECIMATION=40
##$LOWESTF2=-322.245893
##$T2NUCLEUS=1H
##$PULSE_AMPLITUDE=17.500000
##$PLOTTYPE=1D
##$INTEGRALS IS MANUAL=True
##$INTEGRALS REFERENCE ENERGY=-16.635311262488
##$INTEGRALS START=3.014749
##$INTEGRALS END=3.149808
##$EXPERIMENT_SETTING_Apodization=0.03
##$EXPERIMENT_SETTING_Decoupling Mode=Off
##$EXPERIMENT_SETTING_Digital Resolution=0.02 Hz
##$EXPERIMENT_SETTING_Dummy Scans=0
##$EXPERIMENT_SETTING_Dwell Time=0.50 us
##$EXPERIMENT_SETTING_NPoints (Complex)=8192
##$EXPERIMENT_SETTING_Nucleus=1H
##$EXPERIMENT_SETTING_Pulse Angle=80.37, °
##$EXPERIMENT_SETTING_Pulse Width=14.21 us
##$EXPERIMENT_SETTING_Receiver Gain=12.00 dB
##$EXPERIMENT_SETTING_Receiver Gain (dB)=12, Auto
##$EXPERIMENT_SETTING_Scan Delay=1.0 s
##$EXPERIMENT_SETTING_Scans=4
##$EXPERIMENT_SETTING_Solvent=Toluene
##$EXPERIMENT_SETTING_Spectral Center=5.00 ppm
##$EXPERIMENT_SETTING_Spectral Width=20 ppm
##$EXPERIMENT_SETTING_TX Frequency=60.550825 MHz
##$EXPERIMENT_SETTING_Time Per Scan=7.8 sec
##$EXPERIMENT_SETTING_Zero Filling=7
##$RDC_ENABLED=1
##$RDC_TYPE=CONT5PAR
##$RDC_DATA=(0.145553,5.475700,2.437884,0.765625,0.888815)
$$ End of NMReady specific parameters
$$ Bruker specific parameters
$$ --------------------------
##$DATE=1781019414
##$SI= 65536
##$TDeff= 8192
##$SFO1= 60.55082452533694
##$O1= 302.75412262668470
##$SF= 60.55052177121431
##$BF1= 60.55052177121431
##$AQ= 6.55279983446235
##$SWH= 1250.00003157765696
##$SW= 20.64381519783609
##$SR= 0.00000000000000
##$OFFSET= 15.32198420897096
##$FIDRES= 0.15258789447969
##$O1P= 5.00000000000000
##$TD= 16384
##$DW= 399.99998989515007
##$SPECTYP= PROTON
##$NS= 4
##$DS= 0
##$DR= 16
##$DE=1.000014
##$RG=12
##$P1=14.210050
##$P= (0..2)
0.0 14.210050
##$PHC0= 59.50000000000000
##$PHC1= -79.00000000000000
##$PH_mod= 1
##$WDW= 1
##$LB= 0.02999999932945
$$ End of Bruker specific parameters
$$ ---------------------------------
##NPOINTS=8192
##DELTAX=0.0008000000
##NTUPLES=NMR FID
##VAR_NAME=TIME,FID/REAL,FID/IMAG,PAGE NUMBER
##SYMBOL=X,R,I,N
##VAR_TYPE=INDEPENDENT,DEPENDENT,DEPENDENT,PAGE
##VAR_FORM=AFFN,AFFN,AFFN,AFFN
##VAR_DIM=8192,8192,8192,2
##UNITS=SECONDS,ARBITRARY UNITS,ARBITRARY UNITS,
##FIRST=0.000000,1281.659007,391.444477,1
##LAST=6.552800,0.000030,0.000020,2
##MIN=0.000000,-1183.291945,-917.278734,1
##MAX=6.552800,1281.659007,1028.787290,2
##FACTOR=0.00079999997979030013,0.00000059681916309891,0.00000059681916309891,1
##PAGE=N=1
##DATA TABLE= (X++(R..R)), XYDATA
      0.00000000     2147483000     1382203911     -217086927    -1532185181
      4.00000000    -1982664128    -1434095630     -324368368      724220277
      8.00000000     1237181441     1134796139      605536743       27008242
     12.00000000     -305570587     -365210647     -356364023     -480701152
     16.00000000     -711710284     -744666998     -318653452      497743989
     20.00000000     1267737283     1498108484      968844399      -97542588
     24.00000000    -1163476552    -1666014015    -1342386652     -368415647
     28.00000000      708424086     1310146171     1189476409      557652570
     32.00000000     -121171660     -481041726     -488080175     -368481092
     36.00000000     -340619629     -409946275     -402487241     -132663078
     40.00000000      392867180      924094645     1097887496      696289874
     44.00000000     -164937647    -1040245265    -1415306472    -1047079836
     48.00000000     -139989735      782456643     1213583855      991934017
     52.00000000      339541041     -307198411     -607981301     -508311134
     56.00000000     -223704072      -29440996      -47589106     -163436151
     60.00000000     -146156900      130599582      545980759      787643594
     64.00000000      591102086      -29976131     -748311322    -1125101370
     68.00000000     -901732322     -182934229      616486531     1044123427
     72.00000000      892098690      305151351     -324400193     -641093386
     76.00000000     -539792441     -200163605       78940928      121165691
     80.00000000      -11790902      -95041411       35687575      335757078
     84.00000000      565369923      477594419       25607129     -559661887
     88.00000000     -909544323     -773986548     -195047284      499149331
     92.00000000      907044088      804048453      283622204     -313951052
     96.00000000     -639241418     -556732916     -210719054      117082658
    100.00000000      214667762       97249001      -43677907      -20505826
    104.00000000      193815173      415240781      410038461       85603586
    108.00000000     -401170267     -744512043     -687062221     -219789934
    112.00000000      398830835      807709554      762587565      303242008
    116.00000000     -272600566     -625054581     -583150350     -245306561
    120.00000000      114022397      262594533      172592117        3361559
    124.00000000      -40960199       94781908      284467699      319860750
    128.00000000       99841155     -288221260     -597046119     -592420124
    132.00000000     -226322518      319771502      716778904      716093512
    136.00000000      315300682     -232357630     -592944352     -576205783
    140.00000000     -256244706      107188069      282282669      219714342
    144.00000000       47303982      -51804995       11673480      163519734
    148.00000000      241942026      111072855     -194790162     -478361638
    152.00000000     -519369490     -226771081      250646784      621762699
    156.00000000      647882151      303573002     -184525425     -521830654
    160.00000000     -538166021     -265025260       86442970      294560411
    164.00000000      267829980       90021347      -64195090      -60125916
    168.00000000       72946623      181400753      115125113     -125484284
    172.00000000     -383173379     -441527922     -216160175      184751382
    176.00000000      513442054      561292333      290504297     -134903512
    180.00000000     -458982994     -500577027     -257651408       84280214
    184.00000000      303664704      288068671      104131323      -68324379
    188.00000000      -97179166       15455921      133953134      116605416
    192.00000000      -61723766     -280770860     -363951158     -215412893
    196.00000000      107692131      408861758      490282585      282108671
    200.00000000      -94874030     -406457806     -464903206     -252916561
    204.00000000       69437341      287165962      288288106      121934877
    208.00000000      -58224754     -115762818      -30965697       89562092
    212.00000000      116357427       -5446584     -197812100     -301583424
    216.00000000     -205829534       60221489      336922843      430911876
    220.00000000      264085190      -68321568     -361225846     -432559085
    224.00000000     -256360584       39873192      262944687      292342485
    228.00000000      147845262      -40361944     -131277948      -77665024
    232.00000000       41066102       99657979       25124593     -130828075
    236.00000000     -236399818     -175730353       39212104      279237232
    240.00000000      374792182      245332136      -44436352     -314772655
    244.00000000     -400854154     -255104788       17939634      247475897
    248.00000000      295109515      162913701      -28154368     -140851291
    252.00000000     -114440748       -3283007       76371965       41266010
    256.00000000      -84826708     -182863745     -151780164       21709459
    260.00000000      232764713      331631910      231842295      -24850769
    264.00000000     -276541168     -371534767     -248486249        5353220
    268.00000000      233358872      298013758      183435758      -12008332
    272.00000000     -150059855     -149313744      -48025464       51821985
    276.00000000       59166584      -30550545     -129547789     -133217608
    280.00000000       -7050798      170922337      275392274      209072314
    284.00000000        3687756     -224632811     -324930574     -232925185
    288.00000000       -5062178      212817657      288986070      191339148
    292.00000000        1339273     -146760845     -165834502      -69710611
    296.00000000       39913797       70944106        5877310      -86380785
    300.00000000     -111695658      -25204896      118406475      214883769
    304.00000000      173526729        7434491     -188489484     -282889690
    308.00000000     -207695551       -3989724      199612534      274801615
    312.00000000      184189027        -589749     -154164907     -186898581
    316.00000000      -95472933       34973777       97778342       62392489
    320.00000000      -29315428      -87946732      -54576965       54783457
    324.00000000      145455078      140933880       18448630     -143553486
    328.00000000     -232599432     -178017575       -9510846      171319941
    332.00000000      245436505      170673561       -1422904     -150999190
    336.00000000     -191129284     -107421318       26545881      111039116
    340.00000000       99633360       13717493      -61946376      -62411623
    344.00000000       13800976       96984302      110651021       23931817
    348.00000000     -105771214     -186269432     -148670255      -10000625
    352.00000000      147978067      216787653      154578592       -1390087
    356.00000000     -149800974     -197982656     -118707570       18300459
    360.00000000      121373415      122719723       42694523      -49891302
    364.00000000      -77518313      -25326631       57306122       93097714
    368.00000000       45037964      -58741374     -140265880     -134435462
    372.00000000      -29650553      108138634      187771008      148430864
    376.00000000       15215322     -127523599     -186016474     -127583639
    380.00000000       -1959615      106334306      126521645       63920623
    384.00000000      -25543016      -72090953      -45724674       19190759
    388.00000000       67865247       51264536      -25198666      -98467976
    392.00000000     -108557853      -33128187       82392355      155899177
    396.00000000      134254781       22823774     -104093443     -166312717
    400.00000000     -125251752      -13714968       94570756      127651024
    404.00000000       76931620      -13888582      -73390467      -69172265
    408.00000000       -8706870       47578350       53842642        2806671
    412.00000000      -64840150      -87858309      -36422547       57091776
    416.00000000      125510843      116616604       31668728      -81330385
    420.00000000     -142785354     -120275422      -22345471       80686495
    424.00000000      128592289       89178764        4262372      -72004568
    428.00000000      -85425007      -39001325       22461621       53248659
    432.00000000       25505747      -30291518      -63444448      -39710657
    436.00000000       26187167       88860977       94020349       33793873
    440.00000000      -57747655     -118088537     -103837546      -23764222
    444.00000000       70379156      120116817       91548935       13048135
    448.00000000      -63211377      -89544605      -56113239        7976206
    452.00000000       49836628       44102021       -1075171      -41119230
    456.00000000      -42471971         345607       52155263       70718188
    460.00000000       32650313      -35778265      -91626309      -86412443
    464.00000000      -24879841       56495646      103878704       87371355
    468.00000000       17289280      -58991691      -90980968      -61103335
    472.00000000         972741       54117062       58759180       20228532
    476.00000000      -24752320      -44554579      -22719935       21256052
    480.00000000       47287236       32014683      -15446068      -62134294
    484.00000000      -68589360      -26286510       36578443       82898829
    488.00000000       75200743       20503759      -46867718      -82709604
    492.00000000      -66367400       -5261891       51648387       69507140
    496.00000000       41440546      -10189675      -45960435      -39741282
    500.00000000       -3292761       30982007       34724685        4393763
    504.00000000      -34961966      -49902643      -28727949       18631460
    508.00000000       57722404       60697522       22729709      -34144415
    512.00000000      -70898095      -61022570      -13092040       40105643
    516.00000000       67120367       48891148        2196380      -36385274
    520.00000000      -43518940      -18314565       14225555       31529985
    524.00000000       19480938       -9495680      -32304227      -26721395
    528.00000000        4938280       38608353       46303943       22052869
    532.00000000      -24149188      -59417969      -55785844      -17393489
    536.00000000       30941153       59707404       48546813       11048996
    540.00000000      -30266528      -46733704      -29523323        4523737
    544.00000000       28919316       27100624        5723548      -20753598
    548.00000000      -25158417       -5239855       24017374       37506874
    552.00000000       22890744      -12591114      -43267993      -48694750
    556.00000000      -22627491       18016973       49072513       47103072
    560.00000000       16229308      -26480412      -46827820      -37351395
    564.00000000       -6149248       24917674       32625290       20213094
    568.00000000       -6802808      -20875556      -14872678        6273350
    572.00000000       22611777       19559357         885955      -26055982
    576.00000000      -35356094      -20835984       10336417       40355097
    580.00000000       40809735       18192860      -19190389      -41861758
    584.00000000      -41425816      -13781309       19734174       35170005
    588.00000000       25469853        3563861      -17967138      -22050705
    592.00000000       -7929994       12525024       19784778        8913240
    596.00000000      -10172601      -22299991      -19050662        2488784
    600.00000000       24988726       33935893       19710010       -9100857
    604.00000000      -34116376      -35185311      -18692707        9398944
    608.00000000       29675848       29116733        9440117      -13132520
    612.00000000      -24996809      -15523970        2247978       14440020
    616.00000000       11202740         214620      -13737415      -13620251
    620.00000000       -3077112       17791024       26115032       19106236
    624.00000000       -3058518      -25148442      -32714971      -18565941
    628.00000000        8170853       29200149       31958225       13325018
    632.00000000       -9626749      -23932961      -22828844       -5338029
    636.00000000        9760167       15749703        7374597       -7666328
    640.00000000      -14923346       -8152527        7477868       21359035
    644.00000000       19463103        1329148      -18841163      -27764769
    648.00000000      -20350658        1321878       23823044       30831765
    652.00000000       18430779       -2904431      -21920505      -24856278
    656.00000000      -12824572        5096841       15259524       13221571
    660.00000000        1664435       -8368034       -8005522        -221598
    664.00000000        8583901       12609671        3303690       -8881224
    668.00000000      -19466755      -16683311        1210965       18997884
    672.00000000       27532179       18753888        -582216      -19259094
    676.00000000      -24487715      -15831402        3908280       14238145
    680.00000000       17837428        7380888       -5629340      -11703742
    684.00000000       -6470660        2347990        8626593        6049303
    688.00000000       -4217752      -14978398      -13334878       -3891511
    692.00000000       13080444       22463724       18471174        3458448
    696.00000000      -14707217      -23384044      -18241006       -2478893
    700.00000000       16179385       20638050       10565202         909061
    704.00000000       -8189396      -10751402       -4673132        6275725
    708.00000000        7119097         229024       -7765220      -11095707
    712.00000000       -4174028        7483709       17371162       14698477
    716.00000000        2302525      -11371526      -19969608      -18038063
    720.00000000       -4846292       12076149       19672070       14168322
    724.00000000        1900418       -8064440      -11610704       -6188088
    728.00000000        2119178        6642494        2644918       -2535015
    732.00000000       -7948396       -4584884        4721570       13450889
    736.00000000       13576276        6277678       -9918047      -20142430
    740.00000000      -17848157       -6504368       10019894       20074062
    744.00000000       18642926        7334885       -6317956      -15245114
    748.00000000      -12685004       -3643370        4621531        7610137
    752.00000000        2816794       -2260607       -3027540         407527
    756.00000000        7948912       10638221        5970520       -6262484
    760.00000000      -13647109      -15667390       -8117610        7093706
    764.00000000       16182941       18470211        7104095       -5778130
    768.00000000      -15061311      -12464758       -5705876        4149676
    772.00000000        8872244        7456160         950006       -2597366
    776.00000000        -634280        1636880        7663469        3633473
    780.00000000       -3128886      -11868026      -13072154       -5972186
    784.00000000        6823181       16264792       16776530        9225534
    788.00000000       -5820225      -16716482      -16179440       -7910278
    792.00000000        3518084       10593870       10264382        4270231
    796.00000000       -2472638       -3518753       -1496241        1856540
    800.00000000        1653904        -301059       -6500609       -8583096
    804.00000000       -4694793        4029399       11597524       14680408
    808.00000000        8767669       -3393296      -13342594      -16575727
    812.00000000       -8719921         646408       11826247       12155944
    816.00000000        6319945       -2624245       -5854243       -5040271
    820.00000000        -762911         696918         837713       -4308009
    824.00000000       -5719154       -3904904        2978808       10245126
    828.00000000       13056414        7268699       -4332195      -12616742
    832.00000000      -15511843       -8972519        1836943       11079323
    836.00000000       14617420        8956475        -238259       -7282377
    840.00000000       -9327589       -4564404         991983        2079922
    844.00000000         912765       -3562209       -2613840        1745106
    848.00000000        6067774        8408314        5664323       -2562157
    852.00000000      -10569074      -13089098       -7364542        2320621
    856.00000000       11473411       14267669        8585371        -300577
    860.00000000       -8072262      -10138507       -5516039        -454707
    864.00000000        3167692        2076359        -640407       -1687334
    868.00000000        1132023        4631504        5443606        4889852
    872.00000000       -2091639       -9536779      -11601694       -9140857
    876.00000000         628761       10274876       13877767       10252180
    880.00000000        1496432       -7240119      -11096362       -8045849
    884.00000000       -1662307        3937975        5200286        3342397
    888.00000000        -622750        -121007        3216603        4502957
    892.00000000        3522870       -2182113       -7737333      -10145558
    896.00000000       -8222935        -219653        8212014       12205627
    900.00000000        9732900        1028083       -6476136       -9658329
    904.00000000       -9596727       -2110455        3211793        5361468
    908.00000000        4518732        1307232        -487374         427082
    912.00000000        2477447        2112486       -1793499       -6973917
    916.00000000       -8437290       -5329581        -118282        6954885
    920.00000000       10924555        9149635        1397781       -7974569
    924.00000000      -11337654       -9718728       -3444076        3690262
    928.00000000        7835280        5964243        3325124          55347
    932.00000000       -1298453        -682662          48003       -1511389
    936.00000000       -3773535       -6432996       -4887393        -516515
    940.00000000        6542481       10100118        7646323         817178
    944.00000000       -6614639      -10760265      -10791747       -3773819
    948.00000000        3975628        8711839        7400041        3793451
    952.00000000        -378212       -1851646       -1134882        -276967
    956.00000000       -1502964       -2497118       -3493086       -2695507
    960.00000000         788061        5663181        8380764        6159471
    964.00000000        1145783       -5609400      -10794638      -10563099
    968.00000000       -3581179        3263583        7668224        7056374
    972.00000000        3366942       -1706509       -4126732       -3718661
    976.00000000       -1565373        -293378        -165179       -1008645
    980.00000000       -1289931         598212        4280998        5980334
    984.00000000        6003656         204488       -5658520       -9843449
    988.00000000       -7264887       -1944715        4438948        8156434
    992.00000000        6454636        3599065       -2947200       -6191488
    996.00000000       -5352520       -3170517         842673         543206
   1000.00000000        -124526         492014        1149358        2913728
   1004.00000000        4812227        4230984         292013       -4381839
   1008.00000000       -7017505       -5871036       -1180744        3187573
   1012.00000000        8149875        7171843        1925824       -2482815
   1016.00000000       -5457982       -4991735       -3479576         349515
   1020.00000000        2070321        1335342        1343645         312701
   1024.00000000         157470        2432946        2680104         924461
   1028.00000000       -3400515       -5418663       -6527964       -1710423
   1032.00000000        3815009        6179326        6932779        2236659
   1036.00000000       -2379738       -4581758       -5611816       -2198595
   1040.00000000        1340550        2358460        3321659         377625
   1044.00000000         248746         622877        1150165         657133
   1048.00000000           1193       -2921576       -3723460       -4510761
   1052.00000000       -2003590        2221720        6346633        6258088
   1056.00000000        2797042        -959251       -6011949       -5651973
   1060.00000000       -2464946         662771        3210394        3018815
   1064.00000000        1596034         107218         449182        -533265
   1068.00000000         574028       -1084344       -2942161       -3242305
   1072.00000000       -2968966        -751072        2585028        4759960
   1076.00000000        4163932        1840016       -2321481       -5739283
   1080.00000000       -4967722       -3492763         -64488        3570335
   1084.00000000        3773493        3265993        -469053        -579387
   1088.00000000       -1112668        -466048         198845       -1663926
   1092.00000000       -1148407        -985493         962968        2332657
   1096.00000000        5154581        3263594         510695       -2970180
   1100.00000000       -5560531       -4639334       -1982725        1358280
   1104.00000000        5300152        4438368        2572707         325181
   1108.00000000       -2678843       -2796586       -1458570       -1578429
   1112.00000000       -1629782       -1190122         -42017        1145750
   1116.00000000        2359584        3630058        2705956        1177527
   1120.00000000       -2165161       -4550885       -4494797       -2265329
   1124.00000000        1383210        4390007        5157444        3063474
   1128.00000000         108763       -1991915       -4439764       -2801564
   1132.00000000       -2130780          64660        1552588         544130
   1136.00000000        1940730        1514695        2786438        2095982
   1140.00000000        -460198       -2845353       -4343320       -3733850
   1144.00000000       -1110168        1945774        4201804        4315951
   1148.00000000        1397166       -1417453       -2598931       -3686608
   1152.00000000       -2661757       -1923137         922647        1747602
   1156.00000000        1552739        1048307        1453237         289338
   1160.00000000         453735        -957164       -1515160       -2542843
   1164.00000000       -2439978        -463241        1518932        2943552
   1168.00000000        3143888        1805818        -974727       -3515417
   1172.00000000       -3474939       -2516399        -553102        1560601
   1176.00000000        2253057        1783839         935076         558355
   1180.00000000        -462788       -1378650       -1368468       -2303848
   1184.00000000       -2090935       -1457552        -206923        2466969
   1188.00000000        2658479        2776070        2193455       -1918241
   1192.00000000       -2576020       -2045366       -1760002        -669657
   1196.00000000        1317954        2977057        1770727         297868
   1200.00000000        -938350        -829267       -1243105        -570873
   1204.00000000         -79296        -511818         344249        -168036
   1208.00000000        1204219        1294788        1980799         163817
   1212.00000000        -797671       -2246063       -3008977       -1323633
   1216.00000000         239800        1702275        3320826        2142073
   1220.00000000         151977        -410678       -1479623       -2809926
   1224.00000000        -816409        -918853         273404         672672
   1228.00000000         618692         846605        1417222         630543
   1232.00000000        -861059       -1087462       -1293346       -2323453
   1236.00000000       -1059612        -667872        1706094        1548878
   1240.00000000        1489249         160822       -1002627       -2109391
   1244.00000000       -1497935        -284691         179265         316982
   1248.00000000         306599         117211        1082257        -348839
   1252.00000000         120308        -706900        -729959       -1126413
   1256.00000000        -570125        -440618         759274         669295
   1260.00000000        1441760         903751         167471       -2043651
   1264.00000000       -2010065        -608553        -303955         290590
   1268.00000000         881729        1968535         538314          -6848
   1272.00000000        -372894        -770478       -1018345        -509008
   1276.00000000        -232938        -104569         130176         887308
   1280.00000000        1050685        1422011         270113       -1179909
   1284.00000000       -1271670       -2057777        -808895          72372
   1288.00000000        1608122         913708        1841651         647163
   1292.00000000        -493488        -973951        -965527       -1392003
   1296.00000000       -1340816         120096         720672         515300
   1300.00000000         685964        1202237         371846         363261
   1304.00000000        -370823       -2011512       -1517250         206334
   1308.00000000         162576        1414667        1449405         990410
   1312.00000000        -344413        -202203       -1910173       -1984220
   1316.00000000        -592084        -316708         100619        -554405
   1320.00000000         761193         509502         397890         110168
   1324.00000000         298713       -1377677       -1157710        -996426
   1328.00000000        -587204         574349        1169945        2020325
   1332.00000000         788338         103324       -1051090       -1256669
   1336.00000000       -1506055        -692358         -97737         111527
   1340.00000000        1292653         787228         414593         -42593
   1344.00000000         164189        -900526        -926406       -1115262
   1348.00000000        -827400        -205882         683954         933453
   1352.00000000         681382         142000        -589744       -1308042
   1356.00000000       -1051420       -1255705        -253025          82171
   1360.00000000         -13296         581343         588498         201791
   1364.00000000         -82134        -370892        -171818        -671475
   1368.00000000        -493443         273391         601017         169809
   1372.00000000         782861         606729         469238         991937
   1376.00000000         -62374        -937935        -713537        -475630
   1380.00000000         181056         823156        1792345         566764
   1384.00000000         743108        -120191        -922453        -616322
   1388.00000000        -781509        -613472        -343127        -498629
   1392.00000000        -207871         120949         495785        -380111
   1396.00000000        -187843       -1022578        -850993        -668174
   1400.00000000        -597223          12730         649673         688394
   1404.00000000         521165         159394         451082        -351345
   1408.00000000       -1331770        -240528        -418640          -7038
   1412.00000000         509651         575813         576272         575548
   1416.00000000          37859        -271244        -183990       -1364204
   1420.00000000        -498492          36077         677860        -212803
   1424.00000000         817758         458465         -59277        -127998
   1428.00000000        -453196        -134195        -444033         -62169
   1432.00000000         358613         394976        1209956         867830
   1436.00000000        -133780        -519947          76480        -670477
   1440.00000000        -839194        -364555         597446        -306521
   1444.00000000         600138         644550          24763        -374487
   1448.00000000        -692119        -277403        -292860        -746705
   1452.00000000         605927          57195        -244102         142461
   1456.00000000         270169        -171908        -560569        -921261
   1460.00000000        -870129        -179173        -144947         958041
   1464.00000000         499427         923808         376638        -668246
   1468.00000000        -276950        -375217       -1192286        -494571
   1472.00000000         859468         451537         106766         569481
   1476.00000000         124727         235453         307228        -465467
   1480.00000000        -640312        -898903        -548360          -3480
   1484.00000000         456109         522552        -299638        -204011
   1488.00000000        -863655       -1202853        -672989        -812460
   1492.00000000         440981         144066         921204         709100
   1496.00000000         767519         781542         219781        -952342
   1500.00000000       -1039926        -561113        -630016         -89874
   1504.00000000         604486         781294        1181509          68624
   1508.00000000         234332        -562248       -1196713       -1278625
   1512.00000000        -537700          44947        1016243        1132290
   1516.00000000         974135         141755        -145407         383977
   1520.00000000        -936902       -1581814        -150013         302985
   1524.00000000         476919         994486        1187630         625077
   1528.00000000         364182        -433634       -1042934       -1491093
   1532.00000000        -366537         -62104         284408         900919
   1536.00000000         431642         595179         176857        -418647
   1540.00000000        -662652        -673578        -568669        -501870
   1544.00000000        -202505         785326        1117285         660694
   1548.00000000         757081        -200534        -648461        -815090
   1552.00000000        -657887        -491992          50138         590150
   1556.00000000        1170657         905018         -12965         806311
   1560.00000000         -69961        -296643        -704620        -633547
   1564.00000000        -626220        -398907         435070         188850
   1568.00000000        1073900         471713         423239        -449274
   1572.00000000       -1038583        -871612        -333317         142555
   1576.00000000         728711          17700         906030        1030783
   1580.00000000        -151733        -301436        -786384        -753833
   1584.00000000        -914932        -656992        -503719        -409134
   1588.00000000        1114434         819255         789074          17559
   1592.00000000        -353540        -474886        -968567        -469469
   1596.00000000         101299         694023         285792         677990
   1600.00000000        1014552         278627        -394214        -159926
   1604.00000000       -1030113         -80515        -728795         316701
   1608.00000000         144471         659700         823202         491215
   1612.00000000         426422        -758235        -641722       -1450639
   1616.00000000        -363475        -797428         570831         781417
   1620.00000000         605266         867313         114379        -519269
   1624.00000000        -504035        -549098        -142961        -488872
   1628.00000000         285357         481934         719371         845155
   1632.00000000         485242         -10020        -918869        -685686
   1636.00000000        -672254        -330242         185491         550232
   1640.00000000         468795         574241         293524        -351337
   1644.00000000        -512964        -128679        -166811        -318179
   1648.00000000         152747         -55692         281030         468692
   1652.00000000         825302          47853         247544        -311008
   1656.00000000        -817878        -277507        -237993        -486317
   1660.00000000         507297          41549         460109        -102837
   1664.00000000        -441601        -617752        -615746        -220385
   1668.00000000        -105953         312835        -168067         326749
   1672.00000000         364229         -24042        -111668        -289715
   1676.00000000       -1029490        -609249        -496974        -294604
   1680.00000000          28513         969410         710251         227049
   1684.00000000        -409243        -283137        -656847           6776
   1688.00000000          66280        -301889        -392793          61207
   1692.00000000          69052        -321954         -42687        -604265
   1696.00000000        -452091          96254        -293366        -491958
   1700.00000000        -146982         -82960         377876         382978
   1704.00000000         -46587        -123081        -451212       -1039721
   1708.00000000        -931796          43884         721777         299049
   1712.00000000         359216          79438        -297869          15855
   1716.00000000          93399        -352235          20570        -440744
   1720.00000000         -73750         -83588         418701         343910
   1724.00000000         231148         -20718        -296182        -234820
   1728.00000000        -459545         170112         263288         404540
   1732.00000000         267591        -259264          91128        -174968
   1736.00000000        -234144         -88155        -355375         105199
   1740.00000000          59848        -284602         156678         324730
   1744.00000000          29133         124551         -52513        -866438
   1748.00000000        -755246         -62325        -729632         128407
   1752.00000000         232827         631982         122323         111448
   1756.00000000          44978        -600416        -174197          30702
   1760.00000000         -92172        -407365         186135          96015
   1764.00000000         183093         446885         -76648        -410117
   1768.00000000        -452075        -658997           -109        -159093
   1772.00000000         -44681           6730         235965          -7221
   1776.00000000         392221        -342014        -290354        -484020
   1780.00000000          48814        -113145         435262         462060
   1784.00000000         178901         444029         316343         162866
   1788.00000000         -27117        -385721        -420656        -223861
   1792.00000000        -174286          -9374         459438         642142
   1796.00000000         266032          35337          32887        -268739
   1800.00000000         187788         362233         -22769         -98638
   1804.00000000          74840         -38836         258288         524989
   1808.00000000         145584          -8725        -351808        -565033
   1812.00000000          96387         154128          85655         685189
   1816.00000000         192435         -28126        -286828        -229122
   1820.00000000        -647479        -137700         147231          15200
   1824.00000000          96164        -160749          91637        -216220
   1828.00000000          57175         -88077        -667406        -397485
   1832.00000000        -227235         -35432         -72317         135292
   1836.00000000          60690         360733          46748        -284483
   1840.00000000        -358539        -325757        -451074        -180770
   1844.00000000          83694         102584         117565         -91605
   1848.00000000         350102         212491        -222231        -151433
   1852.00000000         228083        -478624            797         -15742
   1856.00000000         -66354         282072         424865        -105704
   1860.00000000        -282690        -545142        -442969        -104622
   1864.00000000         198442         344584         -32842         104177
   1868.00000000         337666          -2677         184002        -120524
   1872.00000000        -439957        -425710        -523945        -224424
   1876.00000000         186302         165577         504623         129993
   1880.00000000          -4172        -434058        -157053        -165580
   1884.00000000         199184        -445465          48839         650348
   1888.00000000         148901         299992         160533        -127699
   1892.00000000         148213        -197221        -389105        -618942
   1896.00000000        -216792          85342         413962         360121
   1900.00000000         -62879         159813        -209060        -656147
   1904.00000000        -349150        -288140          49100          94221
   1908.00000000         497234         229656         117836         -22644
   1912.00000000        -540745        -266247        -731028        -362001
   1916.00000000        -165891          54205          -1278         502661
   1920.00000000         267922         102189         -65045         -30428
   1924.00000000        -597354        -647098        -267926          75279
   1928.00000000         -72872         191273         161301         -59797
   1932.00000000        -396231        -329321        -179493        -371546
   1936.00000000        -151758         -45145          75855         265541
   1940.00000000         354054         -16521        -224462        -479851
   1944.00000000        -298684         -98487        -536902          30428
   1948.00000000         251201         373229         407344         -16647
   1952.00000000        -192097        -122430         -84182        -169616
   1956.00000000         -57008        -116017          73039          79092
   1960.00000000          17774         326444         -33780         367675
   1964.00000000         163858        -172456        -330768        -203802
   1968.00000000         174501         104360         591952         119850
   1972.00000000         103359          88202        -147353        -344755
   1976.00000000         170610          28377        -435264        -121766
   1980.00000000         348290         474836         206607         132954
   1984.00000000          95726        -217911         -41759        -512621
   1988.00000000        -417403         317027         271060         260438
   1992.00000000         123653         218039        -357383        -233908
   1996.00000000        -264574         -85493         162511         -43787
   2000.00000000        -162752         383007         -32636          59124
   2004.00000000         -87868         176814        -162805        -497830
   2008.00000000        -125387         -98556         -50205         129482
   2012.00000000         123995         219413          59375        -266101
   2016.00000000        -479926        -153688         -80898        -151796
   2020.00000000         -57503          11180         -78734          75756
   2024.00000000        -138296         -66508          34172         -72062
   2028.00000000        -167738           2439        -146089          15615
   2032.00000000         149579         105258           6412         157348
   2036.00000000        -213503          49598        -180359        -212219
   2040.00000000         -78480        -127183         -82147         -53364
   2044.00000000         150918          13661         -72484        -216232
   2048.00000000        -161381        -461881        -187301         -12446
   2052.00000000         331916         174059         349776         312800
   2056.00000000         -30309        -257672        -278910        -393520
   2060.00000000          -6644          12626         171464        -142277
   2064.00000000        -100703         -87682         192702          14281
   2068.00000000         -74194        -231647        -214585        -170133
   2072.00000000        -236788         183272         292894         181249
   2076.00000000         276865         278323         -56980        -306412
   2080.00000000        -132587        -385659        -134760          22515
   2084.00000000         162649         -28513         353638        -160250
   2088.00000000        -513298        -551189        -284111        -260617
   2092.00000000        -221261         130537        -150542         133277
   2096.00000000         209060         155224          96505        -182476
   2100.00000000        -362979         -34212         -75225         -68170
   2104.00000000         129422         267369          38446         -46406
   2108.00000000         -75177        -132074        -325459        -399750
   2112.00000000        -270370         -40917         -49901         205085
   2116.00000000         105191          14116         -69082        -136375
   2120.00000000         -96431        -181541         -28904         224145
   2124.00000000          96144         346688         195149          21520
   2128.00000000         -66766         203799          95914          -1840
   2132.00000000         -69187         -31202          26443           9510
   2136.00000000         105459          21145          91515          35869
   2140.00000000         -49417        -102741         -64399        -374298
   2144.00000000        -202757           4532          75514         189851
   2148.00000000          53533         104262        -150652         -56427
   2152.00000000        -335987         -57438        -125529         201762
   2156.00000000         202453         108466          46406         113760
   2160.00000000        -155293         164170        -103052         -41383
   2164.00000000        -159487        -254016         155144           9575
   2168.00000000         168529         179939        -198483          -4301
   2172.00000000        -104212        -457630          38392         -47290
   2176.00000000         120355          -4309          38788         256928
   2180.00000000        -234138          15239         115164        -198305
   2184.00000000        -370861        -190712          78534          20805
   2188.00000000         266231         -15505         198249         -61695
   2192.00000000          37167        -245966         -85021         -31154
   2196.00000000         463543          -8212         227159          -9577
   2200.00000000          -1488          52414        -246194         -26719
   2204.00000000        -104939         -29417        -256824         -33318
   2208.00000000         191293        -115802        -303960         516248
   2212.00000000         -68521          18506          29192         -79449
   2216.00000000         -96956         122425          21432         -86070
   2220.00000000          14389         -34162          72531          53313
   2224.00000000        -288354        -208594          15843        -281047
   2228.00000000         -70211          33363         -55422         187131
   2232.00000000         -62281         100350         -82730        -195650
   2236.00000000        -367745         -96915         123624         165477
   2240.00000000          75442        -265690        -267670        -159431
   2244.00000000        -213097         170701          49363         159152
   2248.00000000        -243245        -340167          64032         -62105
   2252.00000000         124103        -201858         -64423         -25288
   2256.00000000          85785          37496          95277          98526
   2260.00000000          93601        -103642        -164683          72205
   2264.00000000        -294227           7353         167469          79340
   2268.00000000         174035          42686         -79180        -214629
   2272.00000000          68477           1627          19030          50010
   2276.00000000          39622          76687          -9594          18533
   2280.00000000          -4986         -42970          -7732         -14878
   2284.00000000        -162990        -107706        -129832        -150358
   2288.00000000          46008          29110         -21524        -184927
   2292.00000000        -187496         103011         -12428         -25928
   2296.00000000          28464         -67352          63149        -243058
   2300.00000000          72035         -70961          86327        -236600
   2304.00000000           8548         -22883        -105292         119914
   2308.00000000          71241         138711          46634        -149445
   2312.00000000          19397         -67926         -93042        -125111
   2316.00000000          80114           3274         122560          16372
   2320.00000000          74868         -80423          71463        -156367
   2324.00000000          32809         -18600         -10610         126900
   2328.00000000        -327982         -75344         293999         146587
   2332.00000000        -135646          64275        -168544         -42047
   2336.00000000        -156729         -80199          49704          32623
   2340.00000000        -179681          49691         -95528         172883
   2344.00000000         143018          77923          91677         -46983
   2348.00000000          15492          16864          71764         126926
   2352.00000000         -17401          50240         -71717          -1698
   2356.00000000         -82765        -310333        -153126         -75229
   2360.00000000         155428         -70523         252222        -206719
   2364.00000000          30421          81820         100505         -30402
   2368.00000000          -9031         -60084        -160277         -67535
   2372.00000000         -61481          11315         154027          13418
   2376.00000000         105014          22319          75489        -126098
   2380.00000000         -57354          51901          40336          -8768
   2384.00000000           9405         -20114         -89085        -162590
   2388.00000000         -28263        -115267        -200094        -218021
   2392.00000000         -91119         196022          58015         104208
   2396.00000000           1987        -261270        -222730         -80037
   2400.00000000        -124536         -21851          20391         -92937
   2404.00000000        -150776        -127794         -32445         -50730
   2408.00000000          19277         -40456        -212153         -22492
   2412.00000000          31444           8426          22228         -55410
   2416.00000000          22681         124889         -79932        -263520
   2420.00000000          23994         -90352         -58518            141
   2424.00000000          43608         135126          72411           6415
   2428.00000000          71812         -25722          42313          -5186
   2432.00000000         -84656         -82734        -169479          24861
   2436.00000000          18037         121528          81089         -78444
   2440.00000000        -126344        -165415        -154265          -7725
   2444.00000000          10283         146096         142007        -101757
   2448.00000000         -67233           -287         -34998         185810
   2452.00000000          31753        -182846         -51567          28148
   2456.00000000          93125          29472          56371         -95029
   2460.00000000        -205877         -96934        -162874        -137713
   2464.00000000         -13242         -78420          67152         -67838
   2468.00000000         -82459         -12302         -44440         -52840
   2472.00000000          93920        -113502          47598        -226507
   2476.00000000        -154426         -61968         126603          23242
   2480.00000000          38265         -19374         -65146           3599
   2484.00000000        -141437         -54480         -84336           3128
   2488.00000000          67166         -14354          51577         -13842
   2492.00000000          -7557          -8888         -72282         -44328
   2496.00000000          97106          49783         -67255         -18075
   2500.00000000          51173         -44987         -44308        -207599
   2504.00000000         -91554         -35170         -24781         189979
   2508.00000000         245379          11650         -71293          -3415
   2512.00000000         105464         -44912         176952          -9377
   2516.00000000          73869           3340         154905         -67974
   2520.00000000          24252         205866          -5129          52434
   2524.00000000        -221926        -109488         -32804          57448
   2528.00000000         169808          75426         203312        -102146
   2532.00000000          32888          39510         -55352         -14360
   2536.00000000        -186344         -41642        -139202           8767
   2540.00000000         120648         -98652         116314          92352
   2544.00000000          40921        -111162         -15398         -52417
   2548.00000000         -94958         -90706         -12922          59277
   2552.00000000          37739          75941        -124879        -127023
   2556.00000000        -107655        -120703         -90045          16608
   2560.00000000         130894         -24707          83480         -47519
   2564.00000000         118515         -86655         105875        -172173
   2568.00000000         -47635        -217682          24864         129401
   2572.00000000          40000         -45857         121721        -176273
   2576.00000000         -98485         -27129         -95692          49723
   2580.00000000          88759          73403          18125          -5562
   2584.00000000          30769          30952         -14599        -186487
   2588.00000000         -33148          33880         -34633           1256
   2592.00000000         -19960          25673         173136         -39298
   2596.00000000         -78944         -76727         102304         -83564
   2600.00000000           5690          21427           7048         -28048
   2604.00000000         -30885          21083         130078           6877
   2608.00000000          -3049         -27844         -46030          56950
   2612.00000000         112028          18570         -59285         -27631
   2616.00000000         -42913           2085          13806          19044
   2620.00000000         -81817         -59786         -72717            244
   2624.00000000         -91883          -3899         -32632           7033
   2628.00000000          56354         140613         -97932        -145331
   2632.00000000         106389         -27640         -44055           1347
   2636.00000000         -79392        -106874         -83275        -135474
   2640.00000000        -209933         -54327         113392          81284
   2644.00000000          -8918         -27063        -186686         -32866
   2648.00000000          -5305         -65527           6958        -151903
   2652.00000000          68792         139619          23395         119135
   2656.00000000          38657         -17101          20319         -31738
   2660.00000000        -134870          45428        -133135         -39984
   2664.00000000         -63217         -58521          58307          60491
   2668.00000000          57188           1296          17344         -12403
   2672.00000000          50649         -31634        -105060         -55115
   2676.00000000         -34307        -130521          -5858          31913
   2680.00000000        -144944        -195782         -11026         116422
   2684.00000000           6304         142339         -17949          42513
   2688.00000000          41954          -2101         -10143          28818
   2692.00000000          69237         -24992          -1619           6531
   2696.00000000          19080        -129139          13113         -78300
   2700.00000000         -84962          26609        -106051         -16267
   2704.00000000           2205         -13442          29125          68090
   2708.00000000          26093          54713           -981         -65996
   2712.00000000          17427         -27299         -15107         -49602
   2716.00000000         -51303         -89015          68669         -15253
   2720.00000000          41383          -3646        -120419          12815
   2724.00000000          44976          86576          -9489         113686
   2728.00000000          55670          35470         -66974         102497
   2732.00000000          50047         -40618         -81963         -40618
   2736.00000000         -41251        -193371         -86923        -127576
   2740.00000000          63616          63593          73103           1981
   2744.00000000         103830          13727          52799        -211600
   2748.00000000          22276         -42059           5915         -16132
   2752.00000000          -5393           8931         -21119           4356
   2756.00000000          48508           2799        -119060         -66162
   2760.00000000        -156404          13005          15284          -8925
   2764.00000000          89122          10208         -27503         106615
   2768.00000000          89777         -52254          12810          -8689
   2772.00000000          65546         -32786         -69040         -23761
   2776.00000000          64711         -43638           7485          56052
   2780.00000000          -4346        -120823         -48765          93954
   2784.00000000          41295          86634          -9676         -97032
   2788.00000000         -21828           2103         -22400         -87503
   2792.00000000        -127587         -17542         -10653         -55222
   2796.00000000         -81296         -14676        -101962         -14572
   2800.00000000          48048           -306          13676         -21924
   2804.00000000         -87072         -29223          77271         -24023
   2808.00000000          84066         -16257          79493         -10475
   2812.00000000          36010         -63943          -4959          16901
   2816.00000000            682          13948          65778          30160
   2820.00000000          -8946         -58126           5974         -45026
   2824.00000000          23869        -111086          26273         -24026
   2828.00000000           9697          97928         -67950          -8491
   2832.00000000         -43476          29270           2796         -51670
   2836.00000000         103092         -46432        -111693         -38141
   2840.00000000         147288        -123073          74328         -12177
   2844.00000000         -80352         -55057          64688         -57647
   2848.00000000         -37379         -28679         100255          56639
   2852.00000000          11101          35938         -25658         -57989
   2856.00000000          40746         -58945          84490         -26820
   2860.00000000         -42207          52226         -16506           8329
   2864.00000000          27797          -3301          35856         -87759
   2868.00000000         -37766          21601        -114859         -90346
   2872.00000000         -55853          38672            -39         -25949
   2876.00000000         -66221          68435         -38094          -3383
   2880.00000000           -350           6152         -69331          99353
   2884.00000000         -27357         -50597          37856          87491
   2888.00000000         -79180         -40314         -71628          69692
   2892.00000000         -47103          12502         -80681          59772
   2896.00000000         -11432           6167         -29975         -92630
   2900.00000000         -35184          -9480          62177         -57778
   2904.00000000         -44616         -20762         -16849          -1720
   2908.00000000         -63816          26963          40263          49952
   2912.00000000          69847            631          23290            493
   2916.00000000         -13139          49345          36802         -98226
   2920.00000000          19608          53259          39741         -49897
   2924.00000000          58243          27258         -59130         -80633
   2928.00000000         -21860          73235         -92224          22414
   2932.00000000         -43357         -70073          58674        -145521
   2936.00000000          47024         -66432         -32222            395
   2940.00000000          14552          49699         -49666          30415
   2944.00000000          63760          37386           7752          69912
   2948.00000000          13455         -94298          48777         -37000
   2952.00000000          39610          63132          16741         -61109
   2956.00000000         -34222          67518          34295          20674
   2960.00000000          30211         -34545          62266          16615
   2964.00000000          59609           6621         -59251           6438
   2968.00000000         -23709         -98956           8346         -35116
   2972.00000000         -60229         130046          15982         -44776
   2976.00000000         -55681          24967         -23882         -29058
   2980.00000000          31067            140        -122339         -25766
   2984.00000000         -40147          13196           8670         -27589
   2988.00000000          62952         -84958         -43683         -28692
   2992.00000000         -14342         112600         -18963          50732
   2996.00000000         -31453         -93606         -30927         -44887
   3000.00000000           2408          77198          80479         -25271
   3004.00000000         -27005          57181          23804          24314
   3008.00000000          74404         -37472          33786         -39816
   3012.00000000         -21134          28051          -6245         -98352
   3016.00000000         -31481          52478           3627         -28297
   3020.00000000         -98768         -14604         -15196         109959
   3024.00000000         -18946         -38114          -4693        -101835
   3028.00000000         -50080         -10940          -4637          17592
   3032.00000000         -33601          24491          -2652         101880
   3036.00000000         -25641          -7985         -28845        -116264
   3040.00000000          -5342         -12542          -9879          50087
   3044.00000000          35049          34349         -55594         -34168
   3048.00000000           8465         -29703         -13433         -36951
   3052.00000000          46978         -69024         -46822         -46540
   3056.00000000          29913          -6902          17711          14548
   3060.00000000          -6294         -70010          92995         -25801
   3064.00000000         -21662          76117          61036          47831
   3068.00000000          35471         -57951         -35023          53967
   3072.00000000           7022         -51615           4852        -131499
   3076.00000000           8002         -31447         -41066          52656
   3080.00000000         -13512         -64538         -27568         -60673
   3084.00000000          -3737          10711         -22045          46904
   3088.00000000         -55271         -11764          13846         -42091
   3092.00000000          18222         -10024          10977          86598
   3096.00000000          20351          17874         -39051         -52431
   3100.00000000         -60773         -22336          20098         -80033
   3104.00000000         -63307          -4833          13034          10156
   3108.00000000          33755          45738         -41263         -40855
   3112.00000000         -14651          33233         -61299          21432
   3116.00000000          -8450         -30704         -70484         -42793
   3120.00000000          40444          16647         -60831         -50886
   3124.00000000         -10132          -2716         -32941            309
   3128.00000000         -25893         -23035         -62985         -58110
   3132.00000000         -86769           1085         -32172         -99885
   3136.00000000           2052         -29222          40867           9888
   3140.00000000         -14078          -7201          12964          27518
   3144.00000000          81766         -59227          -1757         -17193
   3148.00000000          26774           7884          27820          26517
   3152.00000000         -60386          35166         -38563         -87409
   3156.00000000           3967          39660          70878          -1427
   3160.00000000         -44269         -53577         -31366           4993
   3164.00000000          24138         -48762         -30934         -32920
   3168.00000000         -53423          42750         -13424         -61083
   3172.00000000          21114           6344           1023         -19456
   3176.00000000           3967        -106502           4463          41150
   3180.00000000          32200          58065         -49922         -46913
   3184.00000000          -1183          39939          11806          84278
   3188.00000000         -55388          -9765         -13664          45680
   3192.00000000         -14164         -24701         -24654         -16900
   3196.00000000          61715         -49596         -72652         -19944
   3200.00000000         -66321          -9916         -36924          21103
   3204.00000000           1926          -5189         -51146         -49680
   3208.00000000          50114           9045         -21055         -10243
   3212.00000000         -19299          17521          16924           6357
   3216.00000000           5538           7128          23470         -52757
   3220.00000000         -25679          14249          -5582         -56994
   3224.00000000         -21111          46066           6145           4330
   3228.00000000           -898         -23826         -84015         -16490
   3232.00000000         -32314         -51291         -25727          24605
   3236.00000000          59346         -11132         -58237          32616
   3240.00000000         -61912         -19271         -56520           4959
   3244.00000000         -25223         -18100         -21476         -44921
   3248.00000000          43201         -41201         -18631         -14873
   3252.00000000         -37373          -1508         -47925         -28016
   3256.00000000          19319          30327         -69120         -27808
   3260.00000000         -58171         -13600         -23720          -2048
   3264.00000000          36265         -36639           3888         -53241
   3268.00000000         -93412         -11257          29377          82654
   3272.00000000          -5965          21479          13230         -44525
   3276.00000000         -30115           2723         -53293          70751
   3280.00000000          10575         -15309          12251          -6820
   3284.00000000         -25619         -24610          17019         -30562
   3288.00000000         -35762         -29446         -10650          22759
   3292.00000000          20199         -12708          11159          -8627
   3296.00000000           8288         -51590          53447          10498
   3300.00000000         -35311           7504          35715          27637
   3304.00000000         -36924         -80750          69768           3133
   3308.00000000          -8994          28020         -15813         -72437
   3312.00000000          23178         -16142          21225         -21251
   3316.00000000         -57351         -12895          -7938         -47018
   3320.00000000          51528         -24811          41780          -6932
   3324.00000000          -8188          -6371          -9483          23242
   3328.00000000         -39466          -9863         -37271          12602
   3332.00000000           4121         -31786         -11499         -12269
   3336.00000000         -68401         -15470          22536          -3752
   3340.00000000             53          -9298          -1029         -25640
   3344.00000000         -22745         -39325         -53384           3435
   3348.00000000         -20437         -69285          23493         -24161
   3352.00000000         -19602           7282          65431         -35198
   3356.00000000         -23263         -47864          -5910         -48447
   3360.00000000         -34352         -15518         -31853           5134
   3364.00000000          34968         -23526         -27001          69851
   3368.00000000            987          17606         -32670         -29095
   3372.00000000          28436          -2678          -4260          -3579
   3376.00000000          15511           1723         -21526         -80104
   3380.00000000         -48225         -23980         -56316           7468
   3384.00000000          26497          -5138         -12714         -32951
   3388.00000000         -22752          17790          31357          34942
   3392.00000000         -32127         -20480           2680         -30211
   3396.00000000          39922          26085           4014           8748
   3400.00000000         -34051         -16063          42360           6142
   3404.00000000          56752         -31175           3616         -44208
   3408.00000000         -56340          39601          20900          -6536
   3412.00000000          46914         -54241         -34927          -9191
   3416.00000000          14047          -6408         -22643          11160
   3420.00000000         -60265         -33510         -30566         -11182
   3424.00000000         -42527          27432         -25464         -35572
   3428.00000000         -11801          -2842         -33758         -31102
   3432.00000000         -34858          32879         -26355          13458
   3436.00000000         -24840           4870         -58022         -19605
   3440.00000000            613         -28599           6123         -10097
   3444.00000000           6246          -4486         -11599          -9887
   3448.00000000         -65052            777           -270         -43719
   3452.00000000           7937          22513         -44036           2186
   3456.00000000         -29748         -12344         -59402           4533
   3460.00000000          28700           1191         -12939         -23115
   3464.00000000         -56964          22702          54413          -7381
   3468.00000000           6910           6249          45801          -8535
   3472.00000000         -28088          15749          -8781          -2560
   3476.00000000          37870          -9270         -36118          25843
   3480.00000000          41391         -29663          46803         -13192
   3484.00000000         -72976          -9666          31113          11229
   3488.00000000           9886         -21589         -11613         -15501
   3492.00000000         -17627          -6129          -2963          28010
   3496.00000000          10612         -50278          33557          22419
   3500.00000000         -10159            -95           7066           5492
   3504.00000000         -10294         -21215         -39094          13439
   3508.00000000         -43145          15816          -9418         -68819
   3512.00000000           3766           9091          13554          27882
   3516.00000000         -24636          29102          12598          22768
   3520.00000000          15424         -42459         -34215          30047
   3524.00000000         -21073           2348         -11330          36255
   3528.00000000         -13527          13545          16850         -58730
   3532.00000000          -3502          30663           1007           6909
   3536.00000000          27454         -31748          -9424         -15755
   3540.00000000         -10576         -41877         -22917          -3054
   3544.00000000         -11540          13965         -29945           3739
   3548.00000000         -20029         -19787           3689         -20949
   3552.00000000          17050         -27847          22523           4658
   3556.00000000         -11694          16635         -33992          39538
   3560.00000000          26027           6082         -61959          -6807
   3564.00000000         -16162          12674         -11694           9311
   3568.00000000         -18498          16024         -18404         -37250
   3572.00000000          -6386           4706          20666          25860
   3576.00000000         -14676           8603           5450         -29450
   3580.00000000         -14038         -36763         -30231           5121
   3584.00000000          -8541          -4967          34933          30111
   3588.00000000         -14468           8955          12155         -44968
   3592.00000000          14081          27498         -16990          -3862
   3596.00000000          -9514         -23575         -40594          24718
   3600.00000000         -26789          -7843           1462          -2089
   3604.00000000          43219         -17670         -29198           -305
   3608.00000000          36652          -5865          -9013          14883
   3612.00000000          18118         -19872         -21906           -560
   3616.00000000          23507         -10545          -7189          14708
   3620.00000000          -7666          19875           3009          33708
   3624.00000000           6538         -16744         -14024          31752
   3628.00000000          15629          22418         -18946           3180
   3632.00000000         -47915          26384           3244          -2308
   3636.00000000         -13601           5514           2500         -17123
   3640.00000000          -1347         -23386          -8718          49558
   3644.00000000           4953         -32063          20988         -40155
   3648.00000000          12905          -5229           8573         -45570
   3652.00000000           4113         -14615          12209           2874
   3656.00000000          23277         -25932          15417          25350
   3660.00000000          16693         -32474          10763           6049
   3664.00000000         -14772          -5352         -24047         -14216
   3668.00000000         -11069         -16713         -59799           4374
   3672.00000000          29735         -21761            840          -4101
   3676.00000000          12319         -30576          10702         -27825
   3680.00000000          -8200           5101          -1141           8903
   3684.00000000          -1750          20591         -12606           8485
   3688.00000000         -24464          16695           9715         -22591
   3692.00000000         -14982          13614          23592           7069
   3696.00000000          10604           8851             24           5174
   3700.00000000             92         -37969           9776           4689
   3704.00000000         -20338           -675         -12844           5452
   3708.00000000         -21982           5677         -10504           -107
   3712.00000000         -37207         -74944         -19949           5675
   3716.00000000         -20963         -30996          -3171           9038
   3720.00000000         -25080          13035         -22132         -15315
   3724.00000000           -750           1490         -41687         -11747
   3728.00000000         -50421           3352          22059          12294
   3732.00000000         -21163          14515          -3112          21714
   3736.00000000           5681          -4522          -2268         -51271
   3740.00000000          -6187         -22950          16939         -22759
   3744.00000000           1739          30850          -8261         -26088
   3748.00000000           7743          22902          -3710           2924
   3752.00000000         -20534         -15077          -3268          -6330
   3756.00000000          10737           6322         -14063          14730
   3760.00000000            404         -16121         -13519         -11937
   3764.00000000          -8910          30509          -4093           3533
   3768.00000000         -44917          -3278         -10629          -7074
   3772.00000000          15337           6354         -22940          14846
   3776.00000000         -11499         -17267          18203          10281
   3780.00000000            694          -3567           1571          15701
   3784.00000000         -13192          20174          -9908           8070
   3788.00000000          -6945         -21366         -14690          -2913
   3792.00000000         -13086          20979          22341         -19504
   3796.00000000         -14153          -9959           8951           7879
   3800.00000000           6943          -2446          -7091         -20681
   3804.00000000           8306          10782          20357         -26971
   3808.00000000          20994           2702         -22213          -8991
   3812.00000000          -5359          -3062          -4353            638
   3816.00000000           8430         -18567           4370           7515
   3820.00000000         -28669         -24667           2070          -2785
   3824.00000000         -19635          -6279          -4291         -21416
   3828.00000000           2898          24968          15821          20426
   3832.00000000           1986           4449           8233            709
   3836.00000000          -9139           1143          -8658          -4179
   3840.00000000           5853         -11046           -747          25723
   3844.00000000          -9865          -1288         -21744            787
   3848.00000000         -15683         -11494          21977          -4791
   3852.00000000          -4803           3348           -816           8705
   3856.00000000          -4106           8895         -18157          13164
   3860.00000000           2727           6987         -10319          11728
   3864.00000000           1546         -12954           2087           9719
   3868.00000000         -32797         -36066          31617           5886
   3872.00000000           7032           7959         -17372          -7659
   3876.00000000          23044          10637          -9795          27694
   3880.00000000          -6266          -5701         -22253          24505
   3884.00000000         -32738         -21621          20185           4071
   3888.00000000          18375         -38208           -665         -18387
   3892.00000000          -1395          -4017          13815          -1147
   3896.00000000          -1882         -26686          -7953          -2042
   3900.00000000          11651          -6885           6371         -21812
   3904.00000000         -13735         -15586           2050           4983
   3908.00000000          -4108         -20138         -22026          -9484
   3912.00000000          13709           9870           6306         -20657
   3916.00000000         -11556          12641           8483          15500
   3920.00000000           2181           3780          -2001          -8629
   3924.00000000          13999           8558          -3465          -3581
   3928.00000000          19049         -16108          10791          -4831
   3932.00000000           1605           2776          -1449           9324
   3936.00000000          -5439          -9702           2827           3697
   3940.00000000          -5483          -1763         -22991           2658
   3944.00000000           -551         -17407          -9905         -10994
   3948.00000000           -713           -710          -5046         -13346
   3952.00000000         -23931         -18422         -25032           7487
   3956.00000000            497         -22645           2109         -16236
   3960.00000000          32753         -28980          -8308          21684
   3964.00000000         -12119          21511           6079           8638
   3968.00000000          -7681          -4698            135          -1355
   3972.00000000         -15677           4815           4460          11869
   3976.00000000         -18483           1961          29941           3192
   3980.00000000         -10140          -2701         -16890           8797
   3984.00000000          -7810         -21565          -8412         -23778
   3988.00000000         -20792           2992          27132           7055
   3992.00000000           9012          -7727         -21415         -30142
   3996.00000000         -18991          28977          -4569          22320
   4000.00000000          -7974          -1779         -24817          -7479
   4004.00000000          11133          22080          23846           6224
   4008.00000000         -20077          -8810            222          18336
   4012.00000000         -20429           6733           1457           3865
   4016.00000000         -16228           3141           6418         -13144
   4020.00000000          -2027           5867         -23287         -27186
   4024.00000000           4640          -1185         -12089         -18464
   4028.00000000          17237           1351           7365          -1040
   4032.00000000          -2688          -1091         -17121         -27894
   4036.00000000           1199          -1389          -5005           -441
   4040.00000000          13988          -1285           -194           7640
   4044.00000000          -3293            973         -27548         -13612
   4048.00000000          30097          -7457         -19449          -6309
   4052.00000000         -27581           3803           2988          -9615
   4056.00000000           4224         -11110         -11643           1411
   4060.00000000          18844           -500           -525           -462
   4064.00000000         -12909           -743           8605           6740
   4068.00000000           -742          13980          -2899           4233
   4072.00000000           4709           -548         -21544         -26723
   4076.00000000          -3831         -11025          -5069          10907
   4080.00000000           6842         -26628         -24925          -3091
   4084.00000000          26427           3355           2209           5643
   4088.00000000          -7180         -12043         -13105          15383
   4092.00000000          -9835          27278         -11362           5019
   4096.00000000            -37           4869           8414           7368
   4100.00000000           6207         -12094          10538          -1809
   4104.00000000           4393          -5623          10452         -18633
   4108.00000000         -22286         -15095            217          13624
   4112.00000000          13426          32933          -4565          26584
   4116.00000000            436         -11254          -9124          -1002
   4120.00000000          11937          -2916            606          10703
   4124.00000000          10379          -2032         -13812           6069
   4128.00000000          -9023          -2835         -23877          15063
   4132.00000000           3743           3976         -10347           5752
   4136.00000000         -18459           9603           -861          -9468
   4140.00000000         -17643          -8926          -8623           8918
   4144.00000000         -22674          13548           5281          -6233
   4148.00000000          -4656          -1326            487          24007
   4152.00000000         -19778           8870            196         -10174
   4156.00000000          -9113          11556           8584         -11969
   4160.00000000          -4100          13688           8569          -1786
   4164.00000000          14978         -12405          10210           -600
   4168.00000000           -233          -7801          -4910           4828
   4172.00000000           5460          -7186          -7642         -19683
   4176.00000000         -13574          -2416           1871         -11405
   4180.00000000          -1777           9081          -8354          -1085
   4184.00000000         -10092            878          -7278          -4114
   4188.00000000          -8254           6669         -25118          -4159
   4192.00000000         -17616           2287          15226          11843
   4196.00000000           -952           7051           -264         -11894
   4200.00000000           9209         -14376            353         -18409
   4204.00000000           1844          -8451          11694         -12364
   4208.00000000           6691           7902          -5182          -3411
   4212.00000000          -8489           8484          -6059          13873
   4216.00000000          -4185          -1855           9410           2008
   4220.00000000          -6071           8785          -7631         -12609
   4224.00000000          -4622           1477            -11          -3106
   4228.00000000          -7487          -2499         -13978          11651
   4232.00000000          10890           -432          -9300           1527
   4236.00000000          -4425          -8048           2670           2971
   4240.00000000         -21418          15880         -10082         -13223
   4244.00000000          -3768          -5916          -6963          14305
   4248.00000000          -7578          -3504         -11327           -121
   4252.00000000         -15635         -14430          -3892          -4527
   4256.00000000          -8358           1279          -1051          -6504
   4260.00000000         -19329          -5368         -12880         -15107
   4264.00000000          -5656           1335          -6646           4320
   4268.00000000          -7644           -678           3573          -3098
   4272.00000000           4406          -1266         -11363         -11981
   4276.00000000           6672         -11573         -10486          -9840
   4280.00000000           1469          -4112          -3957            819
   4284.00000000          -8066           -219           1391          -4460
   4288.00000000           1674           4298          -7382           7504
   4292.00000000          -6335          14459          -7358           3484
   4296.00000000            469          -6291          15129          -6429
   4300.00000000           2137           -830            928           5283
   4304.00000000           8473          -8708          -1536          10144
   4308.00000000          12505         -13371           2628           4323
   4312.00000000          13599          -4789           6122         -25359
   4316.00000000         -13073          -2252           4214          -7946
   4320.00000000           6710          -4170          -5905          -6967
   4324.00000000         -17437          -9728          -4969           1454
   4328.00000000          -5349          -7867          11251         -18961
   4332.00000000          -7083          -5431          -9565          -6932
   4336.00000000          -2533           5285           6152          14616
   4340.00000000           2467         -12300          -5330           -532
   4344.00000000           6414          -1067           8375         -24326
   4348.00000000          -9745            974          10746         -15304
   4352.00000000          -8800          -1521           1599           -164
   4356.00000000            -75           1024          16361         -13316
   4360.00000000         -19221          -6173          -3275           2821
   4364.00000000          -3495          -9302           7394           4506
   4368.00000000          -2843          10128           3404           6396
   4372.00000000          -6124           4637          -5878          10622
   4376.00000000         -13057           7159         -16115           3077
   4380.00000000          -1289          -2850          -5696            918
   4384.00000000         -13738         -23315          11585           4459
   4388.00000000          -7385          -6949           9011           -299
   4392.00000000           7282          -6514           3846          -3261
   4396.00000000          -6268           7995          -8541          -5568
   4400.00000000           4893           3363           5414           4732
   4404.00000000          -5716          -4636         -11074           5928
   4408.00000000          -6161           9910          -3560           9351
   4412.00000000          -4707           1036          -1307          -9859
   4416.00000000           1294           1963         -26514           7950
   4420.00000000            162         -12374          -6127          -6261
   4424.00000000          -9725          -4006          -8661         -10702
   4428.00000000            166          -8646           7877           6259
   4432.00000000           -424           2768           1099           4098
   4436.00000000          -2541           6876         -13650         -13908
   4440.00000000           -827          10850           9764           6617
   4444.00000000           -254         -10593          -1593            809
   4448.00000000          11923          -5023           2173           5124
   4452.00000000           -971           3338          -6613           2615
   4456.00000000           1021             90          -3267           6370
   4460.00000000          -5634           1112          -2970         -10215
   4464.00000000           7839           3447         -17678           1987
   4468.00000000          -7043           7065           2200          -7894
   4472.00000000          12655          -4675         -11961          -5557
   4476.00000000           4087           -989          -4799           6678
   4480.00000000          -9485            412          -4086          -1170
   4484.00000000         -18311           4501          10163           4507
   4488.00000000           -751          -7969           1310           2170
   4492.00000000           7391           2041           6455          -3165
   4496.00000000          -1525            321          -8250         -13422
   4500.00000000           7387          -1618          -8964           5691
   4504.00000000          -4310          14293          -5252           -132
   4508.00000000           2878          -5589          -5492          -9104
   4512.00000000           3724         -10726          -3708           -766
   4516.00000000           7135           6400           1442             54
   4520.00000000          -5929          -5560          11340            341
   4524.00000000          -1486          -4065           2668           4748
   4528.00000000           6642          -3207          -7979           5213
   4532.00000000          -3130          -8558          -1934           -337
   4536.00000000           3604           2937          -1594          -2658
   4540.00000000          -9918          -6340          -8952           8577
   4544.00000000           1436          -6726           1763          -4675
   4548.00000000          -1565            957           5750          -8354
   4552.00000000           4553          -1466           5967           3630
   4556.00000000          -2551          10363          -2830          -7279
   4560.00000000          -8357          -8263            983          10683
   4564.00000000          -9328          -8616           -287           3234
   4568.00000000            -34          -2120          -3555          -5993
   4572.00000000          -2458          -3351          -4397           7134
   4576.00000000          -6470          -4905          -2894         -13713
   4580.00000000            838          -1643           2996           -657
   4584.00000000           9058          -6159          -8158          -4345
   4588.00000000           5282           -798           2927            797
   4592.00000000          -1382          -3494           2481           6374
   4596.00000000          -8151          -1584          -2673           -455
   4600.00000000           3395           4015           3027           5012
   4604.00000000          -2513           5531            608           6965
   4608.00000000           2487          -3643          -1939           7374
   4612.00000000            363           4111           2180          -4080
   4616.00000000          -8631           1394           1719           3436
   4620.00000000           4269           5621           4113           4468
   4624.00000000          -6904          -5317         -10770          -5002
   4628.00000000           3843           5487            635            249
   4632.00000000           1457           6025           5594           8566
   4636.00000000          -4165           3879          -9157          -9417
   4640.00000000          -3457          -3731            373          -9175
   4644.00000000          -9445           8275           1853           4389
   4648.00000000          -1167          -5729           1230           4861
   4652.00000000            401          -3215           4204           3534
   4656.00000000           8207          -5478          -3176           1784
   4660.00000000          -7046          -1608            874          -6149
   4664.00000000             47           5980          -2937           1312
   4668.00000000            919          -1435           2867          -3483
   4672.00000000          -3880            379          -2625          -8563
   4676.00000000          -1991           -278           4361          -5225
   4680.00000000         -10793          -4982          -8623          -4894
   4684.00000000         -11663          -2220          -1897           6210
   4688.00000000          -4501           3298          -5792         -10695
   4692.00000000          -1381          -4161          -3527           1629
   4696.00000000          -4456          -6582           2012          -1131
   4700.00000000            997           2430            405           3598
   4704.00000000          -4455          -2196            760          -1616
   4708.00000000           3542           1843           -124             85
   4712.00000000           3616           7772            710            962
   4716.00000000          -2774           1752           -648           -102
   4720.00000000         -11345          -4247           4326          -5526
   4724.00000000           4348          -4764          -2088          -6433
   4728.00000000          -2977           2918           3946           6500
   4732.00000000          -5138          -2813          -2509          -2080
   4736.00000000          -5063           1165            185           1388
   4740.00000000          -2074           -652          -3615          -3846
   4744.00000000          -4658            403          -4555           1972
   4748.00000000          -2192           1321          -7206           2394
   4752.00000000          -1959          -2924          -7409           -923
   4756.00000000           5291          -8954           3899           -240
   4760.00000000          -1795           4624           -405           1620
   4764.00000000           8215          -1395          -3897           3458
   4768.00000000          -3450           5936           3106           2562
   4772.00000000          -1371          -1888          -1347           8333
   4776.00000000          -9912           7503          -4561           -807
   4780.00000000           2427          -9961          -1994          -3559
   4784.00000000           2098           2692          -4048         -12234
   4788.00000000          -1063           5089           3756         -12315
   4792.00000000          -5067          -7022          -2620          -1813
   4796.00000000          -7575          -4547          -2557          11641
   4800.00000000           4218          -6186          -2285           2237
   4804.00000000          -2654          -4021            548           3608
   4808.00000000          -5432          -2820          -6444           2463
   4812.00000000         -10025           2057           4573           5631
   4816.00000000          -2361          -6597          -2753            453
   4820.00000000          -2755           1020          -7622          -1277
   4824.00000000           7977          -4578           4269          -3457
   4828.00000000           2732          -1655          -2585          -8605
   4832.00000000           1006          -6957           2420           -989
   4836.00000000          -3906            883            536          -1597
   4840.00000000          -3167           -853           -377           3510
   4844.00000000           4468          -3183          -5994           -544
   4848.00000000          -6365           3859           3297           1668
   4852.00000000           1577          -2666            350          -2376
   4856.00000000           5593           3918           4115         -11719
   4860.00000000           2953          -2450          -3574            -89
   4864.00000000          -5433           1876          -6451           2143
   4868.00000000          -1730          -1600           3808          -2215
   4872.00000000           -636           1022           1577           1721
   4876.00000000          -6342           4231           5396           1335
   4880.00000000          -3467           1229           1777           8247
   4884.00000000          -5731          -4621          -4325         -13767
   4888.00000000          -1418          -5715           6303            928
   4892.00000000           1712           4999          -1385           5130
   4896.00000000           1750          -9222          -8349           1812
   4900.00000000          -4910          -1035           -566          -5842
   4904.00000000           4322           2743          -3113          -1414
   4908.00000000           3287            339          -2269           3245
   4912.00000000          -6194            960          -1052           3826
   4916.00000000          -5713           -155          -6005            733
   4920.00000000          -1394          -3249          -1302           2325
   4924.00000000           3551          -5412          -7025          -4337
   4928.00000000           1230           5961          -2949           3643
   4932.00000000           -689          -4045          -6770           -942
   4936.00000000          -5569           1171          -2229           4205
   4940.00000000           -204          -1547           4893          -1108
   4944.00000000          -1915          -1162           3594            996
   4948.00000000           2162          -8616          -3493           -994
   4952.00000000          -1922            451           5126            176
   4956.00000000          -2705          -2320           1308          -6214
   4960.00000000          -1618          -5032           -793          -1350
   4964.00000000          -8716           4702           -795           1939
   4968.00000000           4036           4012           -948           -891
   4972.00000000           4907          -2564          -4240          -4334
   4976.00000000          -1123          -3230           4009          -3268
   4980.00000000           4843          -1054          -3045          -2325
   4984.00000000           6110          -5571          -4957            863
   4988.00000000           8142           -382          -1780           7236
   4992.00000000          -1959           -905            542           -887
   4996.00000000          -3662          -2556           2696           1482
   5000.00000000            265           -155            359           2603
   5004.00000000           2570           1346           3136          -2767
   5008.00000000          -2291          -1053          -1654            522
   5012.00000000            330           1994          -4072          -1312
   5016.00000000           -932          -2403          -3580           -853
   5020.00000000           -324           -560          -2093          -5779
   5024.00000000          -3578          -1227          -6860          -2422
   5028.00000000            391            286           -814           -351
   5032.00000000          -5787          -2373          -2381           -891
   5036.00000000          -3273           -428          -1019           1265
   5040.00000000          -5130            183          -1778          -5334
   5044.00000000          -4168           1716          -2985           7487
   5048.00000000          -1231            828           4975           5388
   5052.00000000           -735           -151            230          -1854
   5056.00000000            875          -7164          -4287            280
   5060.00000000            361           5557          -3425           3878
   5064.00000000          -2593          -4165           2885          -6972
   5068.00000000          -2566            310          -1641          -3341
   5072.00000000          -2669           4590          -2979           3514
   5076.00000000           -679           -152           -613          -1386
   5080.00000000           1572          -2265           1654          -1864
   5084.00000000           1663           3942          -2499          -3753
   5088.00000000          -2111           5306          -3384           -501
   5092.00000000          -3800           -371            756            274
   5096.00000000          -8466          -5012            281           -606
   5100.00000000          -3738           3235          -1595          -2313
   5104.00000000          -4101          -3018            556          -3270
   5108.00000000          -1417          -2174           -738          -2103
   5112.00000000             71           -761           1010          -2624
   5116.00000000          -4595          -2309           2356            215
   5120.00000000           1963            -63           1237          -6025
   5124.00000000           5215           -756           1774           2064
   5128.00000000            374          -5182           -653           -179
   5132.00000000          -4199           -694          -2711            907
   5136.00000000            619            -60           3355           1161
   5140.00000000          -3870            757          -1654           -282
   5144.00000000            549           1884          -2444            803
   5148.00000000           2470          -4274          -6156          -2187
   5152.00000000           1562           -820          -1876           -121
   5156.00000000           -786           -800           2719          -4696
   5160.00000000          -2884           3437            708          -3700
   5164.00000000          -4956            372          -1505           2115
   5168.00000000           1603           -704          -3556          -4052
   5172.00000000          -6674          -2751          -2127           2551
   5176.00000000          -1039          -1074          -2391           1767
   5180.00000000          -2349          -1056           -203            737
   5184.00000000           1223           3807            794            178
   5188.00000000           2400            894            264          -4385
   5192.00000000            808           1136           3219           5283
   5196.00000000           1062          -1620           3567            861
   5200.00000000          -7250          -1990           1689            774
   5204.00000000           -608           -727          -3859          -1400
   5208.00000000           -731          -4204           5221           -184
   5212.00000000           1136           3593            -53           2468
   5216.00000000          -1187            395          -3174          -3478
   5220.00000000          -1274           -377            358            956
   5224.00000000           4571          -1407          -1048           -214
   5228.00000000          -1564             45             66            916
   5232.00000000          -2255          -3025          -1093            217
   5236.00000000            795          -4178           -449          -1651
   5240.00000000           -578          -5876           1166          -3335
   5244.00000000           2133          -4195           2871           1049
   5248.00000000          -1940           -626          -1469          -2042
   5252.00000000           -703           -565          -3059           -352
   5256.00000000            665           -331           1288          -1785
   5260.00000000          -5159           -887           1701           2009
   5264.00000000           1387          -1225           2225           3090
   5268.00000000           1755          -3949           3352            784
   5272.00000000           -799          -2271            431           -135
   5276.00000000           1668           1837           -795          -3693
   5280.00000000           -523           1033           1023          -3076
   5284.00000000          -1967            -74          -2055          -1054
   5288.00000000          -3086           2745          -2405           1731
   5292.00000000          -3050          -1665           2968           3444
   5296.00000000            239           3879           1559          -1172
   5300.00000000           1249          -1010            616           -224
   5304.00000000          -1430          -2888          -3354            443
   5308.00000000          -1277           -152            601          -1979
   5312.00000000           -507          -1392          -2838          -1054
   5316.00000000          -2465            565          -2963          -1224
   5320.00000000           3841            930            666           -347
   5324.00000000           4868          -2518           -146            316
   5328.00000000          -2513          -1036            739            973
   5332.00000000          -2486          -1642          -2860           1821
   5336.00000000           2708          -1797          -4437          -2870
   5340.00000000           -352           1800            267          -3314
   5344.00000000            -85           1755            111           3761
   5348.00000000          -3709          -2589          -1257           1011
   5352.00000000            566            743           -695           3846
   5356.00000000           -707            420           1285          -1511
   5360.00000000           1327            587            474          -1958
   5364.00000000            359            -30           -502           -286
   5368.00000000          -1419           -700            259           3556
   5372.00000000          -3610           2711          -2926           -135
   5376.00000000          -1875           -531          -2263           1152
   5380.00000000            359          -2663          -1346          -1434
   5384.00000000           4831           1212           3522           -121
   5388.00000000           1340          -1408          -2846          -1428
   5392.00000000           -739          -1501            842          -2182
   5396.00000000           1036           3787          -2893          -3813
   5400.00000000           2197          -2456            382           3244
   5404.00000000           2736          -1359          -2864           3633
   5408.00000000           1468          -2585          -1318           1825
   5412.00000000          -2052           -287          -1069          -1459
   5416.00000000           1135            830          -2674           2044
   5420.00000000           1604          -1552           -795          -2201
   5424.00000000          -1090          -2122            487          -5114
   5428.00000000           1430             33           5053           1463
   5432.00000000           1808            308          -4033            366
   5436.00000000            664            461           1244             16
   5440.00000000           1683            574            371              9
   5444.00000000          -1563          -2807           1679          -1867
   5448.00000000            201           3960          -1411           -276
   5452.00000000            368          -2410             -7           -916
   5456.00000000           -940           -674           2859           1450
   5460.00000000           2572          -4190           2670          -4145
   5464.00000000            443            394           -490          -1381
   5468.00000000           -883           -467           1567            329
   5472.00000000            178           -626          -2476           -940
   5476.00000000          -2538          -3707            700            454
   5480.00000000          -2276           -440          -2308             14
   5484.00000000           1580          -1477           2175          -1509
   5488.00000000           2976           -234           2388           1528
   5492.00000000           1058          -2225          -1365          -1324
   5496.00000000          -1608          -1637            -26            141
   5500.00000000           1263          -1262           1987          -1804
   5504.00000000          -1055           1507          -4190          -3879
   5508.00000000           -826           -461           1632           -675
   5512.00000000           2226            455          -3156           -950
   5516.00000000          -1530            238           1060          -3041
   5520.00000000          -1548            264           1114          -1459
   5524.00000000          -1481            316           1904           1958
   5528.00000000          -1927          -1706            -84          -2392
   5532.00000000           -864           -181          -1520          -2659
   5536.00000000             62           1102             52          -1762
   5540.00000000          -1300           2776          -1862           2006
   5544.00000000          -3309            425            157          -2092
   5548.00000000           -418           1724           -666          -1658
   5552.00000000           -344          -1230           -477          -1943
   5556.00000000           -107          -2343          -1983           -876
   5560.00000000            527            131           2390            670
   5564.00000000            -43           1834           2784           3252
   5568.00000000           1096          -1520             24           1724
   5572.00000000           1435          -4406           2408            347
   5576.00000000           -894           2129           1223            118
   5580.00000000            317            960           2564           -455
   5584.00000000            882            970           1979           -548
   5588.00000000           -719            838          -1388            971
   5592.00000000              8           -912            799           -119
   5596.00000000           -465           -472          -2176            238
   5600.00000000           -170            949          -2993          -3218
   5604.00000000          -2989           -915          -1286           -255
   5608.00000000            429          -1772           1594           1374
   5612.00000000           -448           1452          -1107          -1327
   5616.00000000            955           -584           -291            899
   5620.00000000           -517           -774            911           -379
   5624.00000000            863             39          -2725           2805
   5628.00000000           1454            229            351          -3747
   5632.00000000           1030            767            249            225
   5636.00000000           1071           1866          -1045            669
   5640.00000000          -2297          -2043          -1060            680
   5644.00000000             14          -2253          -1745            232
   5648.00000000            827          -3466           -438            635
   5652.00000000           -599            108           -344            187
   5656.00000000            247          -1509            -31           -397
   5660.00000000            891           -211            419           -241
   5664.00000000            424           1883             28             79
   5668.00000000          -1681            109           -552           1102
   5672.00000000           -247           -166            486          -2462
   5676.00000000           1993          -1355          -2458            -17
   5680.00000000           -651          -4605           -550            -66
   5684.00000000            166          -1977           3237            427
   5688.00000000             -8           -925           -122          -2441
   5692.00000000           -968           1161           -469           1304
   5696.00000000            483            468            322           1508
   5700.00000000           1995           1202           2356          -1481
   5704.00000000           -554           -238            816            913
   5708.00000000           1098             29           -810           -552
   5712.00000000          -2733           1250          -1162            643
   5716.00000000          -2199            919           2468          -1618
   5720.00000000            284           -937            469            292
   5724.00000000           -540            852           -716          -1567
   5728.00000000           2033          -2241           1035           1086
   5732.00000000            192            234           -725           3603
   5736.00000000          -4261            232          -2529           -119
   5740.00000000          -2536          -1396          -2506           -236
   5744.00000000           -395            618           -541            -47
   5748.00000000          -2724            806          -1971          -3181
   5752.00000000          -1870            -73            961           -259
   5756.00000000          -1124           -703             38           -161
   5760.00000000             68           2345           -230          -1524
   5764.00000000           -745            544           1007            961
   5768.00000000           1038           1487           -521          -1636
   5772.00000000           -803          -1274           1366            783
   5776.00000000          -2755          -1378           1157           1897
   5780.00000000           -210            440           -946            954
   5784.00000000          -1025          -1077           -951           -456
   5788.00000000            510          -1253           -955           -506
   5792.00000000             74            -91           -410           1408
   5796.00000000           -941           -155          -2155            438
   5800.00000000            263            559          -1839           -135
   5804.00000000            550           2946            144            342
   5808.00000000            502          -1708            147           -871
   5812.00000000          -1768           -172            515            614
   5816.00000000            769            690           -580          -1515
   5820.00000000           -189           -340             93            369
   5824.00000000          -2969           -108            140           -895
   5828.00000000             72          -1749           1860           1323
   5832.00000000           -737            358           1363            291
   5836.00000000          -1037          -1091            592            778
   5840.00000000            -37            314            975            425
   5844.00000000           1504          -3038           1391          -1444
   5848.00000000           -750            -34           -267           -619
   5852.00000000           -268            286           -170          -1996
   5856.00000000           -404           -953            590            -52
   5860.00000000           -501          -1893            518          -1242
   5864.00000000            266            911           -966           1513
   5868.00000000           2137            344          -1634           -108
   5872.00000000           -959           -200            -39           -348
   5876.00000000           -244             -9           -281            693
   5880.00000000          -1224           1336          -1641            664
   5884.00000000            229          -1093           1337          -1040
   5888.00000000           -994          -1662            182             70
   5892.00000000          -1273           -833           1482           -805
   5896.00000000            896          -2314           -853           -315
   5900.00000000            367            941            477           1335
   5904.00000000           1931             -5           -861           -299
   5908.00000000           -293           1829           -894           1170
   5912.00000000            -29            515          -3314            211
   5916.00000000            397           1762           -394           -436
   5920.00000000            441           -734            -97          -1220
   5924.00000000           1062            166          -1249           -227
   5928.00000000          -1426            308            925            600
   5932.00000000           -302           -186           -552           -259
   5936.00000000           -599           -572           -311            -57
   5940.00000000            481            -89           -308          -2661
   5944.00000000          -1150            593            284           -635
   5948.00000000            191            260            513          -1156
   5952.00000000           -323           -605          -1050           -850
   5956.00000000           1773            203          -1039          -1323
   5960.00000000           -449            -53            285            -34
   5964.00000000          -2281           -140           -934          -1950
   5968.00000000           -635            428           -272           -491
   5972.00000000           1212           -984            198            805
   5976.00000000          -2010          -2121            281           -619
   5980.00000000          -1432           1546          -1478           1141
   5984.00000000           -716            879            670          -1040
   5988.00000000           -737            436           -214           -313
   5992.00000000           -288           -605           -913            352
   5996.00000000           2054            296            184           1222
   6000.00000000             29           2084           -741            990
   6004.00000000            -13            -14          -1335            656
   6008.00000000            356           -587           -387          -1138
   6012.00000000            974            -95            357          -1011
   6016.00000000            303           -146             -5            285
   6020.00000000           -969           1209            858            551
   6024.00000000          -1448           1054            171            157
   6028.00000000           -509            622           -214            277
   6032.00000000            553            250            685           -239
   6036.00000000             23           -239           -147           -580
   6040.00000000          -1822           2016             -8          -1898
   6044.00000000            152           1136           1254           -773
   6048.00000000            283            988           -198           -108
   6052.00000000           -124            650           -861           -267
   6056.00000000           -604           -411           1483           -512
   6060.00000000             34            256           -251            614
   6064.00000000           -364           -640            527            233
   6068.00000000           -732           1104            962           1272
   6072.00000000            186            331            490           -748
   6076.00000000           -765            922           -594           -544
   6080.00000000          -1403            696            449            302
   6084.00000000            321           -566          -1045            520
   6088.00000000          -1186          -1173          -1216            759
   6092.00000000            244           -205           -962          -1579
   6096.00000000           -691            654          -1112             35
   6100.00000000           -446            663            935            245
   6104.00000000          -1042            383              6            543
   6108.00000000            298          -1829           -422             68
   6112.00000000           -546             76            185           -819
   6116.00000000            171           -544            703            868
   6120.00000000            207           -107           1324           -264
   6124.00000000           -771            257            859           -415
   6128.00000000            300           -932           -963           -753
   6132.00000000           -991            733           -597          -1092
   6136.00000000           1004           -755           -308          -1204
   6140.00000000            391           -598            548            339
   6144.00000000            588           -541           -891            864
   6148.00000000           -114            778            433           1063
   6152.00000000            -70            176            611           -385
   6156.00000000           1732           -652           -473             25
   6160.00000000          -1072            646           -671           -643
   6164.00000000           -427            436          -1697            -64
   6168.00000000           -497            714          -2025            601
   6172.00000000           -590            991            233            609
   6176.00000000            405           -348           -307           -625
   6180.00000000           -263            841           -593           -880
   6184.00000000           -247           -345           -130            107
   6188.00000000            870            134           1423            505
   6192.00000000            823           1076            876            108
   6196.00000000          -1371            234           1366            468
   6200.00000000            982            267            821            482
   6204.00000000           1787           -441          -1396          -1250
   6208.00000000            -38           -255            -87            810
   6212.00000000           -478            156            881           1547
   6216.00000000           -330            -29            819           1213
   6220.00000000           -362            113            -34            329
   6224.00000000          -1185            915           1039           -521
   6228.00000000          -1208           -166            -41            412
   6232.00000000            743           -646            255           -435
   6236.00000000           -656            262            526           -677
   6240.00000000             21             30            940           -223
   6244.00000000           -806            448            424           -745
   6248.00000000           -514            355            712            -70
   6252.00000000           -110             57            146           -163
   6256.00000000           -702            615            515            327
   6260.00000000           -603           -160              7           -238
   6264.00000000           -417            796            -74           -220
   6268.00000000            577            667            306            561
   6272.00000000           -488           -501           -702           -529
   6276.00000000           -718           -210            537            535
   6280.00000000            129            559            128           -565
   6284.00000000           -779           1363            314           -230
   6288.00000000            188            205           -386            961
   6292.00000000          -1372             51            677           -854
   6296.00000000            339            288           -261            457
   6300.00000000           -688            751           -393            793
   6304.00000000            817           -496           -342           -570
   6308.00000000           -453           -105           -506           -138
   6312.00000000            309            742           -608             92
   6316.00000000            394            513            906           -620
   6320.00000000            169            229            390            254
   6324.00000000             78           -780            291            232
   6328.00000000            224           -817           -331            531
   6332.00000000            686           -254            400           -299
   6336.00000000            764            102            -23           -825
   6340.00000000             30             18           -976            778
   6344.00000000            200           -855          -1223           -197
   6348.00000000           -136            446           -296           -206
   6352.00000000            120            364            174            531
   6356.00000000           -255             13            709           -206
   6360.00000000           -416            264             -6           -648
   6364.00000000             62            304             35           -600
   6368.00000000           -219            113          -1058            602
   6372.00000000            194            421            148            348
   6376.00000000            186            524           -127           -472
   6380.00000000            896            122            363            460
   6384.00000000            -50           -130            648            118
   6388.00000000            -34            -58             63            234
   6392.00000000             57            143           -334           -600
   6396.00000000           -423            417           -589           -109
   6400.00000000            593          -1117            915            859
   6404.00000000          -1082           1102           -205           -304
   6408.00000000           -535           -844            -64            123
   6412.00000000            -67           -657           -269           -150
   6416.00000000            979            -23            154           -582
   6420.00000000           -217            -57            -49            253
   6424.00000000            -28              2             80            278
   6428.00000000            298           -765           -512           -334
   6432.00000000           -882            120            -64            666
   6436.00000000           -107            251           -288           -492
   6440.00000000            181           -483           -917           -321
   6444.00000000           -828            119           -501            810
   6448.00000000             48           -478          -1057            361
   6452.00000000           -144            537           -681            704
   6456.00000000            -98            533            253            747
   6460.00000000           -183            -45           -539            224
   6464.00000000            766            190           -254           -111
   6468.00000000            669           -527             70            -32
   6472.00000000            298             39           -565            -89
   6476.00000000            184            352            213           -561
   6480.00000000           -221           -732           -654           -311
   6484.00000000           -328             10           -283          -1085
   6488.00000000            -45           -204            478            149
   6492.00000000            493           -133           -131            119
   6496.00000000            484            524            -92            -48
   6500.00000000           -881            209           -252             99
   6504.00000000            360           -602          -1206             28
   6508.00000000            625            161              2            234
   6512.00000000            377           -490           -313          -1022
   6516.00000000           -184           -474            109           -785
   6520.00000000            -85            501            434            257
   6524.00000000            151           -604            386            229
   6528.00000000           -607            112           -390            143
   6532.00000000            296           -891           -621           -199
   6536.00000000           -168            473           -112            -56
   6540.00000000             20            672           -744            206
   6544.00000000            419            177             63           -128
   6548.00000000            301           -444            117           -295
   6552.00000000           -258            346           -156            115
   6556.00000000           -545            909           -382            568
   6560.00000000           -227           -168           -327            817
   6564.00000000            221           -478           -221           -603
   6568.00000000           -506            227            760            -24
   6572.00000000            288           -439            328            485
   6576.00000000            308            198           -668           -259
   6580.00000000            293           -433            371           -301
   6584.00000000             26            -16           -675            455
   6588.00000000            325           -126            -87           -613
   6592.00000000            621             77           -270           -193
   6596.00000000           -152           -278            -63             -1
   6600.00000000           -504            335            -78            -67
   6604.00000000            569              8           -291            411
   6608.00000000           -705           -627            169             87
   6612.00000000             -8            465           -181            -90
   6616.00000000             20            -23           -759            483
   6620.00000000            195            301            -70            320
   6624.00000000             -7           -136            242            547
   6628.00000000           -374            -14           -488             57
   6632.00000000           -150           -228           -143           -121
   6636.00000000            -33          -1033            806           -264
   6640.00000000            241            169            476           -124
   6644.00000000           -299            145           -151            536
   6648.00000000            -10           -548           -196           -456
   6652.00000000            134            243             48           -136
   6656.00000000           -441           -217           -234            175
   6660.00000000             83           -391           -144           -174
   6664.00000000           -462            -38             71           -178
   6668.00000000           -900            201            -55             31
   6672.00000000           -182           -526           -683             82
   6676.00000000            457            202            125            -29
   6680.00000000            101            753           -497           -206
   6684.00000000             97            202           -259           -121
   6688.00000000            217            132            150            579
   6692.00000000           -202             -5           -343             56
   6696.00000000           -586            329           -203            413
   6700.00000000           -149            106            325           -418
   6704.00000000           -341           -202           -703             37
   6708.00000000           -136           -308            146            -50
   6712.00000000           -575            -19            262            401
   6716.00000000           -252           -422            297            625
   6720.00000000             14            437            336           -395
   6724.00000000           -415           -297            244            581
   6728.00000000            401            142           -512            145
   6732.00000000            248            262           -218           -260
   6736.00000000            -22           -723            605            359
   6740.00000000             49             93           -261            162
   6744.00000000            335            258            160            -34
   6748.00000000             24            338            -57            420
   6752.00000000           1029           -391             82            -82
   6756.00000000            -91           -146           -278            702
   6760.00000000            -89           -243            245            127
   6764.00000000            -49            132            563            209
   6768.00000000            129           -103              2           -578
   6772.00000000            -94           -724           -393            141
   6776.00000000            247            -21            -42            -42
   6780.00000000            131            124            -40            208
   6784.00000000            -99           -666           -155            137
   6788.00000000            664             -8            -73             31
   6792.00000000            110           -124           -353           -504
   6796.00000000           -363           -314            -26            204
   6800.00000000           -618           -111            173           -140
   6804.00000000            170            282            440            123
   6808.00000000           -302           -288            250            211
   6812.00000000           -279             88            225            247
   6816.00000000            -79           -355             47            172
   6820.00000000            587            -79           -489            122
   6824.00000000            733            323           -201            139
   6828.00000000            210            607            -82             10
   6832.00000000             77            -85           -251            899
   6836.00000000           -284            -30           -139            115
   6840.00000000            264           -132             19            -33
   6844.00000000           -202           -365           -336           -317
   6848.00000000           -120           -213            -28            970
   6852.00000000           -218             72            -30           -328
   6856.00000000           -226           -109           -183            109
   6860.00000000            285             28            285            333
   6864.00000000            -28            -25           -101           -271
   6868.00000000            -69            267           -550           -366
   6872.00000000            224            354           -133           -195
   6876.00000000            -82            479            617            119
   6880.00000000            -30           -219            250            438
   6884.00000000            -83            178           -165            192
   6888.00000000            539            -50           -454              3
   6892.00000000            350             14            -89             56
   6896.00000000             -0            -23            482           -238
   6900.00000000            -76           -179           -250            105
   6904.00000000            -91           -402            359            145
   6908.00000000            369            -45            167            458
   6912.00000000           -216           -151             19            -88
   6916.00000000           -231           -266             28           -519
   6920.00000000           -102             72           -305            231
   6924.00000000             47            309           -270            274
   6928.00000000            324           -330             83           -196
   6932.00000000             42            433            256            235
   6936.00000000             75            -99            -88            372
   6940.00000000           -760           -252            145           -219
   6944.00000000           -101           -238           -120           -250
   6948.00000000           -156            141            191           -430
   6952.00000000            333           -250           -480            318
   6956.00000000            585            134            438            -41
   6960.00000000             18           -326            254            170
   6964.00000000            -73           -243           -258           -292
   6968.00000000           -174             24            252           -157
   6972.00000000            147           -514            -91            151
   6976.00000000            -53              7            588             19
   6980.00000000           -265            -37           -167             86
   6984.00000000            130            -50            -16            291
   6988.00000000             34           -164           -350           -188
   6992.00000000            310           -131           -175            120
   6996.00000000            224            -36           -214            211
   7000.00000000           -335             42             -2           -165
   7004.00000000             97             57            -40           -155
   7008.00000000            -12            306            -22           -184
   7012.00000000            -27             43           -108            -45
   7016.00000000             64            221            327            404
   7020.00000000            347             -5             95             54
   7024.00000000           -337           -237             88            220
   7028.00000000           -288            -62            558           -169
   7032.00000000           -266           -108            144           -269
   7036.00000000            111           -153             66           -136
   7040.00000000           -355           -269           -267           -533
   7044.00000000           -115             51           -115           -127
   7048.00000000            279             58            114            415
   7052.00000000            108            -95           -210           -110
   7056.00000000            178           -142           -335             61
   7060.00000000           -114           -242            278            -20
   7064.00000000             43             33           -183           -174
   7068.00000000           -179           -246             76            -30
   7072.00000000           -484            -62            168             26
   7076.00000000            257           -233           -226            197
   7080.00000000            -77            273             -1            233
   7084.00000000             19             37            -90           -222
   7088.00000000            152           -138           -326            176
   7092.00000000             40           -119             24           -220
   7096.00000000             94            -39             51           -337
   7100.00000000           -178            172             50             54
   7104.00000000           -210            451            -15            -32
   7108.00000000           -313             21           -243            189
   7112.00000000           -335           -232           -133             60
   7116.00000000            159            231            -39            -39
   7120.00000000            176           -447            122           -420
   7124.00000000           -127           -246           -136            144
   7128.00000000           -126            111             18           -296
   7132.00000000            -11           -166            -99            465
   7136.00000000            -50            186            258             45
   7140.00000000            111             90             46             36
   7144.00000000            -49           -211           -401            279
   7148.00000000           -207            198             49           -272
   7152.00000000            344            301            -63             65
   7156.00000000            -81            -70             82            -40
   7160.00000000           -108             81           -283            189
   7164.00000000            704             16            105             -8
   7168.00000000             64            -63           -136            -14
   7172.00000000           -217            190             56            178
   7176.00000000            116             13            -75            -30
   7180.00000000           -189           -353             79             -1
   7184.00000000            190           -438           -306              9
   7188.00000000            207           -321             32            -43
   7192.00000000            312            372             49             37
   7196.00000000           -112           -305            106           -306
   7200.00000000            219           -158            330             34
   7204.00000000            -99            127             68           -395
   7208.00000000            250           -137           -174             82
   7212.00000000            175            260           -297             66
   7216.00000000             63            270           -311           -162
   7220.00000000             34           -334            196           -166
   7224.00000000           -228            -45           -185           -124
   7228.00000000            119             -9            -47           -161
   7232.00000000            281           -280            -89            241
   7236.00000000            -30              6            103            179
   7240.00000000             25            289            190            224
   7244.00000000            200            264             17            112
   7248.00000000            -81            165            -27            354
   7252.00000000            -10            208             50            104
   7256.00000000            -10           -244           -214             -5
   7260.00000000            -96           -276            151           -330
   7264.00000000           -108           -176             75            124
   7268.00000000           -139           -241            122             68
   7272.00000000            141            274           -222             99
   7276.00000000            -76           -344            176           -143
   7280.00000000             83             99           -114             45
   7284.00000000             26             62             -1           -194
   7288.00000000            188             90             39           -141
   7292.00000000            293             94             57           -164
   7296.00000000             56             76           -189           -248
   7300.00000000           -109             31            131             70
   7304.00000000            -45             40             95             14
   7308.00000000             74             20             38            -73
   7312.00000000             91            264            209           -232
   7316.00000000             97            -24           -254             40
   7320.00000000            -33             90            -62             58
   7324.00000000            -69             47           -110           -139
   7328.00000000           -105            136            259            -17
   7332.00000000            -53            -58              1           -270
   7336.00000000           -128            -60            130            -66
   7340.00000000            153            296              2            -31
   7344.00000000            238            106            132           -245
   7348.00000000             21            231              7            -42
   7352.00000000            203            122             15             12
   7356.00000000            112           -353            -79            193
   7360.00000000            189            255             30           -131
   7364.00000000             45             38           -207            -13
   7368.00000000             51            231           -317            -54
   7372.00000000           -185            -24            -59           -134
   7376.00000000            -75            -27            296             62
   7380.00000000            -24           -145            363            -27
   7384.00000000            105            -50            -27            115
   7388.00000000           -242             44           -151            104
   7392.00000000           -252            -49              1            -73
   7396.00000000             -5            165            -94             -0
   7400.00000000            -18             41             15            314
   7404.00000000            -79              2            -94            -53
   7408.00000000             25            151             45            -60
   7412.00000000             18             55           -110            -78
   7416.00000000            -98             23            -41             58
   7420.00000000              2              0            132             41
   7424.00000000            114            -14            -89           -501
   7428.00000000            -20            133            -87            -99
   7432.00000000             34           -181            -23            -80
   7436.00000000            -11            -64           -111            247
   7440.00000000             22           -196            124           -108
   7444.00000000           -107           -187              3           -230
   7448.00000000            -88            -12           -122            -15
   7452.00000000            177           -300           -236            128
   7456.00000000            -88            -85           -178             62
   7460.00000000             -3            105             82            145
   7464.00000000            -24              3           -113           -117
   7468.00000000            103             -2            -31           -151
   7472.00000000            125           -142            -12           -248
   7476.00000000            107           -241           -257            -35
   7480.00000000           -115            -14             38           -114
   7484.00000000           -197             -0             55            236
   7488.00000000           -158             91            145             72
   7492.00000000            -35            -52            136            -77
   7496.00000000             -5            -30            -11             65
   7500.00000000            118           -130            -16            113
   7504.00000000             -5             11           -230           -185
   7508.00000000            121            -82            -15             10
   7512.00000000           -337            -32             67            158
   7516.00000000            -46             32            104            -39
   7520.00000000            -69             63             80             30
   7524.00000000            -69            205            111            121
   7528.00000000            -95            106           -185            -11
   7532.00000000           -285             41             34           -206
   7536.00000000             63            -14             88             23
   7540.00000000             -6            216           -137            309
   7544.00000000           -112            338            -24            -67
   7548.00000000            -42              9              9            -44
   7552.00000000            -10             -2           -159            -25
   7556.00000000             34            215           -131            -72
   7560.00000000           -127             87           -103            143
   7564.00000000             47             98             13             92
   7568.00000000            -61             24             -3              3
   7572.00000000           -119             57           -179            139
   7576.00000000             71            107            226            -12
   7580.00000000            -28            -62            143            127
   7584.00000000           -142             44             61            -16
   7588.00000000            -90            -28            -45            -67
   7592.00000000            114            155             13             -3
   7596.00000000           -130           -213            -23           -144
   7600.00000000              2            147            123            -59
   7604.00000000            220            -50           -100            -73
   7608.00000000            -20           -148             38            -30
   7612.00000000            196           -257             39            -17
   7616.00000000             -4            -35             45           -114
   7620.00000000            -43            113            136            -53
   7624.00000000           -130            -16             97           -168
   7628.00000000              4             46             57            -97
   7632.00000000            -88            155            -76             63
   7636.00000000            -86             93           -125            -29
   7640.00000000           -274             74              0            104
   7644.00000000            -31            -45           -158             56
   7648.00000000             37           -157             78             43
   7652.00000000            120           -135           -141            212
   7656.00000000            -78             11              6             77
   7660.00000000              6             79           -208             99
   7664.00000000            142            208            115            -42
   7668.00000000            -14            166            133            120
   7672.00000000            174           -181           -125           -132
   7676.00000000            111            202             88            -84
   7680.00000000            -19             -9            198            -50
   7684.00000000            -70             -2             -7            133
   7688.00000000            -44             75             72            -84
   7692.00000000             36            -35             53            -57
   7696.00000000             23           -103            273           -132
   7700.00000000             42             89             92             25
   7704.00000000            -88             68             35            -63
   7708.00000000            -27            -59             34             17
   7712.00000000           -131             35             51             61
   7716.00000000            -73            -22            -39            255
   7720.00000000           -143             38             83            104
   7724.00000000            -18           -193              1            -43
   7728.00000000            -38            128           -267            -51
   7732.00000000            -86             29             70            -18
   7736.00000000            -72            -61            -89              8
   7740.00000000             92             14           -192             77
   7744.00000000            -47             67            208            -10
   7748.00000000              1             57            196              3
   7752.00000000             26             54            129             21
   7756.00000000            -36            104             65            -44
   7760.00000000             24            -71            -29            -68
   7764.00000000             14            -88            169             -0
   7768.00000000            -86            -31            -69            138
   7772.00000000            157            -53            -91             69
   7776.00000000            -53             37            -52            -74
   7780.00000000             70             88             21             91
   7784.00000000           -109              8             30             66
   7788.00000000             71            111            -84            -62
   7792.00000000             57            -82             -4             94
   7796.00000000            -82             63             80             12
   7800.00000000             18            -80            -18            128
   7804.00000000           -103            -33             91            -25
   7808.00000000           -135            -64            -21              4
   7812.00000000           -146            -27            -66            107
   7816.00000000            -97            -91            -10           -103
   7820.00000000            -20             51            -20            148
   7824.00000000             18            -55              1              7
   7828.00000000            -45            -90            -33            -34
   7832.00000000             92             94            -29           -130
   7836.00000000           -119            132             89            -19
   7840.00000000              7            -49             65            -81
   7844.00000000            -56            -10            161             53
   7848.00000000            -57            161              7             98
   7852.00000000            116             41             66            -36
   7856.00000000             63            -61            -75            119
   7860.00000000            -38             56             85           -167
   7864.00000000             85            -34            -25            -64
   7868.00000000            -10             12            -10            -69
   7872.00000000             11            113              5           -134
   7876.00000000             16              3           -121           -126
   7880.00000000             21             68             20             -5
   7884.00000000             78           -192             80             -3
   7888.00000000             14             27            -35             55
   7892.00000000           -141             35             85            -21
   7896.00000000           -115           -135             22             -9
   7900.00000000           -145            109           -102             33
   7904.00000000              4            -68            -12             79
   7908.00000000             25             20             48             34
   7912.00000000            -46              1              5            -63
   7916.00000000            -89            -73             29            -89
   7920.00000000             30            -57           -107             34
   7924.00000000            147            -81             78            -28
   7928.00000000            -14            123            -12           -109
   7932.00000000            143            -16              1             53
   7936.00000000            -20            108            -50             51
   7940.00000000            -81           -107             -9             77
   7944.00000000             10             67             -7            -77
   7948.00000000             18            -30             39            -46
   7952.00000000            -15             35             15             17
   7956.00000000            -89            -74             22             53
   7960.00000000           -150            -37             39             69
   7964.00000000             19             17             34             35
   7968.00000000             87            -50             79            -34
   7972.00000000           -146              0            158             63
   7976.00000000             65             -7             18            -20
   7980.00000000            -26            -71             41             39
   7984.00000000             64             -1             79             60
   7988.00000000            102            -46           -144            -60
   7992.00000000            -61            -37             98            -11
   7996.00000000            126             91            -17             24
   8000.00000000           -100            -59             39           -120
   8004.00000000             -4            -46             12            -91
   8008.00000000             60            -41            -66              4
   8012.00000000             55            101             13             32
   8016.00000000            -39            -27             43             40
   8020.00000000             32             41            -48             21
   8024.00000000             48             10            102             65
   8028.00000000            -95             35            -39             83
   8032.00000000             72            -91             23             64
   8036.00000000            -63             25             92             -1
   8040.00000000             59           -136             63             50
   8044.00000000             51             -6             29             13
   8048.00000000             74            -42             20            -44
   8052.00000000            -80             21             42             26
   8056.00000000            -27             29            -34            -88
   8060.00000000             -9             -6            -91            102
   8064.00000000            -38             77             85            -21
   8068.00000000             23             -5           -174            -12
   8072.00000000             18              1             94             44
   8076.00000000            -54             64             95            -92
   8080.00000000            -82             46             55             25
   8084.00000000            -44            -66            -43            -34
   8088.00000000             68             49            -33            -18
   8092.00000000              8             63            -71             58
   8096.00000000            127            -17            -26            -20
   8100.00000000            -38             66             93            -49
   8104.00000000             33            -50             24            -90
   8108.00000000            -13            -37            -43             93
   8112.00000000             34            -81             29            -51
   8116.00000000             44             13             36             55
   8120.00000000            -10            -34            -28            -80
   8124.00000000            -83              0            -72             64
   8128.00000000             -9              9             28             13
   8132.00000000             27             69            -77             29
   8136.00000000             -7             45             32            102
   8140.00000000            -56             98             -5             -3
   8144.00000000             51             -5            -59             53
   8148.00000000             74             -0             13             -7
   8152.00000000            -38             70            -24             18
   8156.00000000            -23             77            -46            -47
   8160.00000000             34              2             53             12
   8164.00000000            -55            -15            -42             69
   8168.00000000             -1             -2            -66             98
   8172.00000000             11            -26            -74            -37
   8176.00000000           -152            -40             12             42
   8180.00000000            -46            -48             46             94
   8184.00000000             28           -107            -29            112
   8188.00000000            -42            -24             -2             50
##PAGE=N=2
##DATA TABLE= (X++(I..I)), XYDATA
      0.00000000      655884565      652259089      599632499      641136644
      4.00000000      593643111      201954198     -477320431    -1134903279
      8.00000000    -1379885927     -991314028      -53100799     1033276426
     12.00000000     1723783942     1604423560      682873793     -571938049
     16.00000000    -1455048645    -1536945847     -894671395       -7245947
     20.00000000      621358664      781949037      605410981      348347063
     24.00000000      202580005      159969126       56533096     -253506645
     28.00000000     -717424689    -1050134365     -895094773     -153113952
     32.00000000      861317474     1554350766     1471553893      607428565
     36.00000000     -563526438    -1397514173    -1473196898     -831536697
     40.00000000      113374656      825652811      990278849      650698988
     44.00000000      143621838     -186770358     -222227843     -130847217
     48.00000000     -150954354     -361937350     -588208213     -550557724
     52.00000000     -117329008      543858125     1054312233     1060005066
     56.00000000      482677787     -393293847    -1079516300    -1185945221
     60.00000000     -668609624      147353372      779335860      906537666
     64.00000000      559593068       44946214     -288716962     -310193631
     68.00000000     -146987443      -45187563     -141443060     -342725884
     72.00000000     -412148012     -172816062      323576157      780937108
     76.00000000      866501649      446705921     -283021939     -904472101
     80.00000000    -1038344596     -601631052      131425677      725231647
     84.00000000      863070471      536826629       20536274     -343800725
     88.00000000     -389356211     -199702965      -11054125       -1925027
     92.00000000     -153436120     -275839563     -172890737      173824011
     96.00000000      563241264      693575178      407613160     -183669700
    100.00000000     -740874345     -910263484     -576188648       65447705
    104.00000000      631119956      802167222      529796135       39015103
    108.00000000     -345272559     -428111475     -244564023      -11374824
    112.00000000       75697170      -25465060     -165513313     -150971401
    116.00000000       90043165      419998352      580194092      384123627
    120.00000000     -110051767     -618609339     -811867206     -548367044
    124.00000000       19195331      551444241      743412243      520780992
    128.00000000       60839292     -337183636     -460527377     -300621805
    132.00000000      -35508827      118906073       72685843      -73960882
    136.00000000     -122561886       31473029      305437453      472224728
    140.00000000      344801615      -55302398     -496566014     -692047828
    144.00000000     -495756334      -16760856      467826201      675078115
    148.00000000      501144559       78713097     -324505990     -472194049
    152.00000000     -325583558      -45285079      141732744      125126013
    156.00000000      -15850757      -99679665       -9661097      204503459
    160.00000000      361445184      295380882       -4002921     -375671608
    164.00000000     -576411465     -450169129      -48601795      398802902
    168.00000000      615881461      478256999       83200734     -305834276
    172.00000000     -456328584     -321963538      -51127195      148497092
    176.00000000      164872229       38707843      -75929259      -53593963
    180.00000000      103149778      258889496      254863159       38076185
    184.00000000     -276817449     -478287047     -400312261      -64573752
    188.00000000      329865195      536274692      432269367       96465577
    192.00000000     -252022437     -412149284     -314228438      -65172984
    196.00000000      149857350      195699178       83201509      -59818405
    200.00000000      -86678904       30871644      187367027      222203907
    204.00000000       63485021     -206132913     -398321712     -357240283
    208.00000000      -84614162      259910200      465689060      401342370
    212.00000000      112289162     -216158802     -386436310     -311337963
    216.00000000      -72357863      150722211      217611175      116307673
    220.00000000      -33620413      -89929345      -11710724      122077413
    224.00000000      176527356       67725734     -150891976     -328100800
    228.00000000     -317930048      -97466320      209368904      411141469
    232.00000000      373889217      118487888     -194650451     -370289218
    236.00000000     -313453268      -89687305      141189617      231836133
    240.00000000      152660031        3486643      -84891508      -44332269
    244.00000000       67532364      138240551       75543900      -97519649
    248.00000000     -258995820     -276579824     -103255780      164859440
    252.00000000      361855192      345048423      124210190     -169866432
    256.00000000     -350666865     -319402034     -114074289      119086264
    260.00000000      235339751      183042704       38357370      -71242546
    264.00000000      -70734273       18090782       92964003       69323492
    268.00000000      -59441269     -197202184     -224800849      -92664633
    272.00000000      135809049      309223279      310670662      120873127
    276.00000000     -142701701     -320657561     -306969893     -120382027
    280.00000000      104676809      227469953      191392600       49004868
    284.00000000      -75754283      -97887973      -24545390       63638639
    288.00000000       72965792      -19065637     -142388155     -186848676
    292.00000000      -91716761       97659528      264385575      280961173
    296.00000000      124099108     -114218390     -285543172     -286171848
    300.00000000     -119661327       96743511      227278319      203430773
    304.00000000       66170434      -76811365     -128345445      -71612153
    308.00000000       25365723       70963680       21085839      -81264938
    312.00000000     -137741944      -86311140       59215369      199537603
    316.00000000      226561920      107637965      -91262113     -241962812
    320.00000000     -248854483     -102864106       97421442      223649569
    324.00000000      203383329       65904098      -86724916     -153216021
    328.00000000     -101921202        4405804       75556019       55200243
    332.00000000      -31478376      -98115448      -85767246       18771771
    336.00000000      139715039      179052684       98481567      -68238011
    340.00000000     -204405696     -218844828      -94708298       88010319
    344.00000000      213704485      202863935       74072191      -80235310
    348.00000000     -162334736     -127539353      -21539880       72823869
    352.00000000       85213351       23027122      -57703189      -77450715
    356.00000000      -15520810       81862371      131831694       83698224
    360.00000000      -41077647     -160256539     -183500629      -86895706
    364.00000000       66604135      181822636      183058087       75482158
    368.00000000      -65925473     -150830424     -128382609      -31242178
    372.00000000       68155739       96636181       47711901      -33840880
    376.00000000      -70893381      -34461270       50868902      105030270
    380.00000000       79101517      -22498573     -126610524     -160434181
    384.00000000      -89087356       43920810      154347875      171314284
    388.00000000       82318018      -53834612     -146849124     -140981716
    392.00000000      -47916821       58375465      109652199       75957676
    396.00000000       -4307759      -61670132      -48671341       14625177
    400.00000000       73242494       69614025        2195043      -84851818
    404.00000000     -129013732      -82084589       25368311      123685166
    408.00000000      149332863       81737538      -38937325     -133549965
    412.00000000     -141293746      -61778731       43654208      104614076
    416.00000000       90079003       16476757      -46826826      -58236184
    420.00000000      -16912000       41431960       58204071       19335723
    424.00000000      -49556063      -93446046      -68929100       13221482
    428.00000000       98458911      127128654       75691709      -27611952
    432.00000000     -118416040     -133380202      -68201094       31061003
    436.00000000      101577647       96911857       33687129      -40775696
    440.00000000      -70684078      -42603085       12432350       47503931
    444.00000000       33677552      -16543264      -60072553      -55003665
    448.00000000        -297223       70579883      102537750       67265355
    452.00000000      -13555351      -93229759     -116582424      -66598675
    456.00000000       23107120       93123313       99655396       45257005
    460.00000000      -32709839      -75607272      -63676596      -11298988
    464.00000000       36524066       44359640       12425183      -32181109
    468.00000000      -46083176      -17852452       37710765       71037718
    472.00000000       57836325        -636948      -67014558      -92077290
    476.00000000      -56670639       15538288       79452057       92481728
    480.00000000       48058222      -23899638      -71118034      -70739137
    484.00000000      -24001484       27139422       49995698       30781944
    488.00000000       -9101749      -36655741      -29678080        6785577
    492.00000000       41906752       43935914       10307316      -41332763
    496.00000000      -67916618      -48657884        8846807       64032143
    500.00000000       80909380       46029943      -18382494      -62536660
    504.00000000      -67772978      -30659487       22906062       54235142
    508.00000000       43301943        5673755      -30576924      -38570920
    512.00000000      -15646056       20210407       36480621       17644310
    516.00000000      -22234236      -48681285      -42175524        -356832
    520.00000000       45181824       66273361       43702126       -7991588
    524.00000000      -52874477      -65517726      -36121238       15804625
    528.00000000       51110790       53224014       22802187      -19264177
    532.00000000      -41447906      -28152028        3185378       26855478
    536.00000000       22899766       -3721193      -30707500      -34916467
    540.00000000      -11664066       23573339       49043918       38333600
    544.00000000        2989440      -38940720      -56726814      -37809803
    548.00000000        6088169       42987828       52575283       27870456
    552.00000000       -9275287      -35976983      -33897902       -9967128
    556.00000000       15051680       24661121       11895354      -13804353
    560.00000000      -24633382      -15861927       11308023       34100391
    564.00000000       30037363        6390235      -26809415      -46383492
    568.00000000      -34573947        -159110       34022566       47526286
    572.00000000       31048322       -1857472      -33620656      -38862245
    576.00000000      -19276147       10748059       28494256       23376720
    580.00000000        3419911      -15639097      -19433575       -1915338
    584.00000000       16695977       22946681        9641819      -15793766
    588.00000000      -32892263      -29085590       -6507168       24184926
    592.00000000       41073778       28906568          63901      -29304780
    596.00000000      -38489610      -23947192        5271315       26647907
    600.00000000       29744714       12578633       -7517776      -17061594
    604.00000000      -11431880        5868722       18080548       14314844
    608.00000000       -3709880      -21354036      -26655685       -9716274
    612.00000000       14991104       33187246       29396795        3491416
    616.00000000      -22785350      -37269492      -29766914       -4628832
    620.00000000       20419511       29218666       20973681        -127683
    624.00000000      -16389086      -17809127       -4541613        9913971
    628.00000000       16714144        5033506       -9279513      -17576392
    632.00000000      -10289951        7029926       23746339       25624074
    636.00000000        9407265      -13864338      -29982173      -27091055
    640.00000000       -8588650       12755967       25642452       21586411
    644.00000000        3292643      -12956053      -20309529      -10752875
    648.00000000        4150581       10567645        7719028       -1364915
    652.00000000      -11091891       -8393763        1645027       17974398
    656.00000000       21635080       10062771      -11042320      -26824528
    660.00000000      -24298671       -9006289       14130595       25283932
    664.00000000       24613497        8272457      -11916218      -23356243
    668.00000000      -17835623       -3506520       10591565       13303968
    672.00000000        6668175       -4796725       -8674057       -4603358
    676.00000000        7892994       14468271        8960888       -3682035
    680.00000000      -16418364      -19270783       -8339726        7517178
    684.00000000       22962923       24688095        9372103       -7610498
    688.00000000      -21291951      -20336659       -8293054        7357430
    692.00000000       15769207        9562469         448239       -7035124
    696.00000000       -8307540        1490312        9289417        8206587
    700.00000000         194742      -11108741      -17076286       -8430578
    704.00000000        6987729       18931343       21711583       11210968
    708.00000000       -5928363      -18541046      -21767022      -10066233
    712.00000000        4904438       14397328       15370254        4254994
    716.00000000       -7291700       -9273257       -5129141        4002713
    720.00000000        7610547         928617       -6289745      -12068590
    724.00000000       -9130610          71361       12884547       18902755
    728.00000000       11887193        -975804      -15690871      -20668485
    732.00000000      -13601874        1514677       14738704       18722787
    736.00000000       11487228       -1397000       -8824700       -8066009
    740.00000000       -1330526        2314726        3137504       -2493604
    744.00000000       -6729919       -7784997         502464       10744155
    748.00000000       16097848       11640976       -1772040      -14749769
    752.00000000      -18159051      -12449393        2395668       13945305
    756.00000000       18114543       11600256        -381061       -9447876
    760.00000000      -11599813       -7135585        1653495        4505757
    764.00000000        1132959       -1848411       -5558663       -1860277
    768.00000000        5554275       11308009       10480808        -149535
    772.00000000      -13137589      -19259537      -12474713        -510009
    776.00000000       11853274       17694867       15557484        1121140
    780.00000000       -9657317      -14264765      -10745962       -1659091
    784.00000000        3345667        5064289        2271429       -2172943
    788.00000000        -177047        1913011        7209089        5915667
    792.00000000        -560162       -9685834      -14260292      -12978740
    796.00000000       -2385665       10889274       17961740       14373862
    800.00000000        1847156       -9340916      -14663732      -11948174
    804.00000000       -2415117        5638669        9310879        5049129
    808.00000000        -876667       -2914556         408953        3850315
    812.00000000        5248029        1605055       -6211559      -11702966
    816.00000000       -9777086       -2678722        9340312       16073627
    820.00000000       13604142        2848578       -7954555      -16317781
    824.00000000      -13918317       -3646236        6729966       11305169
    828.00000000        9076433        2636129       -2495873       -3403293
    832.00000000       -1148772         915854        1558127       -1679684
    836.00000000       -6514421       -7160902       -1557552        6932538
    840.00000000       12410471       10271091        1996487       -8497826
    844.00000000      -14706477      -12234023       -3313363        5931807
    848.00000000       10441259        9224913        2958161       -4379867
    852.00000000       -5536056       -3951224       -1619660        2213823
    856.00000000         535071       -3284658       -5518946       -1260830
    860.00000000        5018605       10826418        8888247        3666868
    864.00000000       -6860674      -12110974      -10730068       -4319736
    868.00000000        5400449       11355435       10433419        4050357
    872.00000000       -2868339       -7340613       -6515548       -1350735
    876.00000000        1192192        1301611       -1672430       -2853159
    880.00000000        -425495        3861246        7972488        7323230
    884.00000000        3017138       -5637934      -11396989      -11766842
    888.00000000       -4119689        4937265       12491032       10362251
    892.00000000        5051758       -3436901       -8619058       -8846975
    896.00000000       -4767706         573483        3473960        1309959
    900.00000000         176629        -597504        2081059        6398461
    904.00000000        6458263        2925706       -5210519       -9940084
    908.00000000       -9577125       -5652694        3583625       10369495
    912.00000000       13012382        5673874       -1720384       -7560805
    916.00000000       -8867422       -6308404        -324885        2531150
    920.00000000        2287770        1014888        -106607        1181283
    924.00000000        3987567        4322236         751852       -2797533
    928.00000000       -8768798       -9958053       -4249983        4347396
    932.00000000       11026626       11782599        6755627       -1500633
    936.00000000       -7740553       -9841275       -6158503         493833
    940.00000000        4541488        6211847        3828239        1718966
    944.00000000         507351        1639924        2135625         737391
    948.00000000       -2698164       -7577464       -7974769       -3541521
    952.00000000        4314483        9530424        9462582        5789663
    956.00000000       -1873714       -8573986       -9793200       -7345163
    960.00000000       -2061343        5267976        6244023        5717573
    964.00000000        2149133        -947592        -855253          55885
    968.00000000          -5149       -3438389       -5603931       -4845302
    972.00000000       -1732476        3839571        7319821        8827772
    976.00000000        5217680       -1799309       -8909250       -9618798
    980.00000000       -6759393        -410113        5829417        8200956
    984.00000000        5146268        1412777       -2008128       -2748334
    988.00000000       -1100436          10540       -1374705       -2766321
    992.00000000       -3533811        -876689        2088127        6360241
    996.00000000        5971939        4163423       -1683224       -5724190
   1000.00000000       -9290342       -5693612         134188        4731405
   1004.00000000        5981286        5539404         676444       -3576909
   1008.00000000       -4096751       -1872370        -862713         627621
   1012.00000000         -36660       -1452802       -1701837        1197145
   1016.00000000        4248841        6029658        3309393        -703889
   1020.00000000       -5929147       -7877119       -4317453        1248777
   1024.00000000        5843483        6633372        5371325        1116228
   1028.00000000       -3628795       -4736402       -2676492       -1259979
   1032.00000000         114102         515279        -444500        -332476
   1036.00000000         809746        2310154        2981828        2285885
   1040.00000000        -825840       -5175223       -5742709       -3473896
   1044.00000000         609300        4489496        7172513        5279480
   1048.00000000         569334       -2750175       -4844382       -3128768
   1052.00000000        -307379         625641        1789965          63869
   1056.00000000         514529         836906        1771897        2261503
   1060.00000000         953312       -1664482       -2987693       -4864923
   1064.00000000       -2970924         508696        5022587        5352846
   1068.00000000        4004789         186850       -3626377       -5111142
   1072.00000000       -4044728       -1310757         826691        1531751
   1076.00000000         967285         527537        -389372         380139
   1080.00000000        1045572         263047       -1552816       -2884082
   1084.00000000       -4315693       -3133155         229839        3595329
   1088.00000000        5408815        3728205         616961       -3044525
   1092.00000000       -4471550       -3021780       -1972738        1312824
   1096.00000000        3035299        3110919        1587515          50961
   1100.00000000        -205456        -504633        -495116       -1507631
   1104.00000000       -1735046       -2773309       -1386486        2016638
   1108.00000000        5275629        4603225        2819421         -42613
   1112.00000000       -3282452       -4889559       -4624227        -385753
   1116.00000000        1632052        4856330        4612766        2411788
   1120.00000000         664011       -1297648       -3080333       -2179594
   1124.00000000       -1494410       -1455751       -1835875        -599312
   1128.00000000        2472757        4002985        3769216        1982212
   1132.00000000        -912593       -3336646       -4506882       -3816116
   1136.00000000         515732        1328419        4708600        3516250
   1140.00000000        1183102        -754078       -2724173       -2699796
   1144.00000000       -1383142        -722374        -818579        1386925
   1148.00000000         871524        1878704        3429270        2556384
   1152.00000000         738662        -638270       -2992131       -3856677
   1156.00000000       -2868542        -368859        2865800        4396388
   1160.00000000        2963282        1229073       -1217151       -1987603
   1164.00000000       -2314009       -1784546        -882002         234117
   1168.00000000        1278084        1411825        1804397        1175229
   1172.00000000        2477854         263196       -1387209       -2741547
   1176.00000000       -2701635       -1893099         -12007        1847654
   1180.00000000        4365852        3862059        1314648       -1080861
   1184.00000000       -3131568       -3740614        -975026        -999683
   1188.00000000        2029884        1916136        1045633         501910
   1192.00000000        -389984         773827        -317689       -1189284
   1196.00000000       -1183931       -2211246       -1571416         823369
   1200.00000000        1882874        3164396        1367344          -1692
   1204.00000000       -1771527       -2395971       -2032487       -1529123
   1208.00000000        -146447        1555445        1477640         717617
   1212.00000000        1376127          69777         -51075        -144049
   1216.00000000       -1185179       -1427664        -220720        -326280
   1220.00000000        -316993        1694889        2340282        1767504
   1224.00000000        -344779       -1618838       -1772645       -2279820
   1228.00000000        -634165         710579        1569989        2032104
   1232.00000000        1080503         850846        -711807       -1094243
   1236.00000000       -1201676        -960341        -523709        -495781
   1240.00000000        1025432        1102397         725714        1579208
   1244.00000000         162934         343473       -1417241       -2353028
   1248.00000000        -909090         -60987        1783065        2475199
   1252.00000000        2096150        -167174        -669207       -1551628
   1256.00000000       -2085301       -1088110         144020         -25953
   1260.00000000         677534         529366         345254        1095863
   1264.00000000         300011         228540       -1418652        -787424
   1268.00000000       -1633548        -948084        -450451        1190450
   1272.00000000        2000389        1183827          54078        -605566
   1276.00000000       -1279654       -1633544        -291146        -308929
   1280.00000000         733138        1499893         736108          88033
   1284.00000000          52027         227518        -930156       -1226604
   1288.00000000        -773158        -622811          30284         206974
   1292.00000000         928197        1479732        1103712          96549
   1296.00000000        -755222       -1790102        -281198        -734844
   1300.00000000         286873         763918        1466646        1548820
   1304.00000000         917706        -122116        -979957        -747939
   1308.00000000        -953057        -634315        -456262         634994
   1312.00000000         501559         643305         796562         952750
   1316.00000000         531001       -1075490       -1623101       -1279420
   1320.00000000        -592281        -328060        1576893        1524316
   1324.00000000         875473         266904        -392905       -1642454
   1328.00000000        -843808        -140548         -70729          29101
   1332.00000000         579684         757174        1273825         556538
   1336.00000000         152011         -68828       -1276060       -1154718
   1340.00000000       -1234052         -82899         128042         753249
   1344.00000000         828498         185613        -919189          75959
   1348.00000000       -1318556       -1377745         527773         330797
   1352.00000000         520151         388955        1115168         720954
   1356.00000000        -169996         708280        -238594        -451545
   1360.00000000       -1026854        -684130         -13547        1077850
   1364.00000000        1512727        1750613         245632         206162
   1368.00000000        -189809        -340498        -723149        -333164
   1372.00000000         266235         155975         438919         340755
   1376.00000000         849289          13673        -453506        -133670
   1380.00000000        -675186        -338523         227436        -223949
   1384.00000000         532523         864102         768775         365901
   1388.00000000         -53091       -1173762       -1128977       -1580764
   1392.00000000        -313581        -318216          91255         488625
   1396.00000000        1192408         235525         112580        -313074
   1400.00000000        -502618        -240400        -975479          10444
   1404.00000000         -39911         880546         496256         176065
   1408.00000000         -21488        -388976        -678085       -1064157
   1412.00000000        -803761        -572030         430446         561074
   1416.00000000         300356         527309         255269        -684660
   1420.00000000        -240277        -534305        -895375         333578
   1424.00000000         -49986         695376         819522        1194637
   1428.00000000         469622         189360        -172147        -321919
   1432.00000000       -1035043         -88236        -361770         536379
   1436.00000000        -283255         193180          86380         -78036
   1440.00000000        -646446        -416237         202186        -485461
   1444.00000000        -240301         401962         694081         715899
   1448.00000000         463859          17692          67556        -688178
   1452.00000000        -338102        -779871         184402         512544
   1456.00000000        -135380         332692         375874         676558
   1460.00000000         272554         -80687        -391468        -695794
   1464.00000000          -4516         307115         679417         870504
   1468.00000000         468726         299860         -39673        -505856
   1472.00000000        -691539        -519879        -200873         -84660
   1476.00000000         109236         693225         705266         142475
   1480.00000000        -444309        -684707        -763253        -987964
   1484.00000000        -221268         199446         364349         609497
   1488.00000000         592757         226147        -289101        -417285
   1492.00000000        -968366        -373733        -895822         297964
   1496.00000000         607494         865087         833243         673712
   1500.00000000         146050       -1282037        -707417       -1200690
   1504.00000000        -635470         352471         767723         532508
   1508.00000000         801413        1161221        -167308        -474429
   1512.00000000        -796581       -1014475       -1128222        -883896
   1516.00000000         263682         833814         859247        1190596
   1520.00000000        -260641        -744334        -618231        -768859
   1524.00000000       -1121644         -27985        -270263         976634
   1528.00000000         483053         956848         306122         275350
   1532.00000000        -328870       -1160084        -886401        -932845
   1536.00000000         357182          86696         537317        1083186
   1540.00000000        1240064         527700        -586625       -1153541
   1544.00000000        -944206        -222936        -391107         150587
   1548.00000000         468634         899942         468351         431819
   1552.00000000        -201827        -339052        -608749       -1241515
   1556.00000000        -313436         101490         281098         797548
   1560.00000000        1123689         827900          13574        -753565
   1564.00000000       -1247244        -360903        -312998          19063
   1568.00000000         348961         704150         956493         280077
   1572.00000000        -178533          17533        -356159        -654160
   1576.00000000        -410419        -450727        -185537         292374
   1580.00000000         753794        1067925         316932         -48690
   1584.00000000       -1088941        -726687        -525948        -248276
   1588.00000000         120614         476765         406573         779896
   1592.00000000         303698         301986        -555558        -864790
   1596.00000000       -1060669       -1081026       -1057560         353309
   1600.00000000         604397         567595         660868         814950
   1604.00000000          61380        -720289        -884227        -566525
   1608.00000000        -439596        -106398         694874         961031
   1612.00000000         756257         271503         139990        -825288
   1616.00000000        -224301        -743299        -911430        -208407
   1620.00000000         -86138         711123        1036398         983608
   1624.00000000          43421         430232        -731934       -1170169
   1628.00000000        -886989        -342972         610658         534641
   1632.00000000         681714         437918         709189        -445510
   1636.00000000        -588629        -696229         164285          33711
   1640.00000000         -95886        -233454         654843        1225714
   1644.00000000         368937         -28150          83336        -546060
   1648.00000000       -1005935        -232984        -268967          99298
   1652.00000000         158196         388504         660193        -144129
   1656.00000000          -7156        -150419        -516718        -458768
   1660.00000000           -640         -52875         715325         -94779
   1664.00000000         487058         499702         -66101        -747808
   1668.00000000        -730089        -809055        -711813         224626
   1672.00000000         318003         634180         430720         206826
   1676.00000000        -662514         -40954        -136850        -288380
   1680.00000000        -519281         593303        -273551         585929
   1684.00000000         528676          95832        -420438         154728
   1688.00000000        -306814        -363971        -738379         133939
   1692.00000000         292136         227698         916958         557493
   1696.00000000          55933        -582082        -786531        -260873
   1700.00000000         153724        -164190          -3975          57413
   1704.00000000         -14048         234778        -235065          42237
   1708.00000000        -155161        -732207        -593119        -461540
   1712.00000000         271199         -14446         654739         435885
   1716.00000000         228195           5128          51369        -610705
   1720.00000000          23839        -311571         347655         180767
   1724.00000000         345646         384255          43244         -18302
   1728.00000000        -150384         -78545        -615003        -538295
   1732.00000000         -51410        -174823         197379         185488
   1736.00000000         323644         131286         250325        -279300
   1740.00000000        -461808        -291968          97164          34510
   1744.00000000          13341         -84265         108274        -239266
   1748.00000000         -63620        -121583         252929        -475017
   1752.00000000          47242          12735         164024        -109790
   1756.00000000         204080         353992         112815        -309932
   1760.00000000        -646544        -459492          67893         175035
   1764.00000000         287587          83159         306818         402518
   1768.00000000         404257        -368085         -33528          34668
   1772.00000000         130061        -294552        -256659          55889
   1776.00000000         259534         335775         509336         431413
   1780.00000000        -536438        -538715        -447722        -438208
   1784.00000000        -121900         136984         352462         439122
   1788.00000000          55095         -25534        -196602        -165597
   1792.00000000        -289719         334510         433663        -112290
   1796.00000000        -152834         299214         117763         139436
   1800.00000000         493662        -225675        -279212        -336850
   1804.00000000        -142644         432818         319802         386376
   1808.00000000        -219599         -70195         169672          -5178
   1812.00000000        -240381        -399496         -16581         481309
   1816.00000000          27541         320180         253653         136656
   1820.00000000         390051        -734888        -517476        -185105
   1824.00000000        -546298         -27409         217238         388377
   1828.00000000         371107          29639         151806        -145224
   1832.00000000        -591050        -623588        -211321        -428886
   1836.00000000         154124        -105798         550929         543724
   1840.00000000        -186759          -3265          39189        -435797
   1844.00000000        -849983        -561487         274550         109952
   1848.00000000         592683         246092         246233        -384301
   1852.00000000        -617793        -400555         120989        -425478
   1856.00000000        -297264         -41964         125964          29124
   1860.00000000         191314         121306          28967         217210
   1864.00000000        -227186        -301118        -350116          15232
   1868.00000000         264183         587666         275314         599166
   1872.00000000        -400983         -79796        -374413        -156939
   1876.00000000         131960         258382           9958          72047
   1880.00000000         139387         -74483        -164291         141601
   1884.00000000        -325472          85974         -49177        -226335
   1888.00000000         165898         579734         317567         488809
   1892.00000000          47572        -499535        -473364        -296857
   1896.00000000        -194010        -337365        -172360         401379
   1900.00000000         388892         285071         127607         288635
   1904.00000000        -261489        -380765        -429188        -584475
   1908.00000000            359         193483         273647         146059
   1912.00000000         350884         246890        -138487        -299610
   1916.00000000        -613678        -486116         -64380         177222
   1920.00000000         296202         419911          15094         373841
   1924.00000000          61966         -72739        -377493         -60145
   1928.00000000        -714364          92361          46361         358446
   1932.00000000         339428         451438         104399        -127708
   1936.00000000        -422330        -525749         -51867         -67287
   1940.00000000          94284           4628           9508         137078
   1944.00000000         155380         -63245         -56470         -55052
   1948.00000000         105508          -5878         356737         123162
   1952.00000000          98696          16045          83565         -21431
   1956.00000000         -51833        -425181         111051          96046
   1960.00000000        -167332         218987         155333         234011
   1964.00000000         185957          51619         -77648        -304161
   1968.00000000        -230974          68101          22034         -37371
   1972.00000000          14349         228336        -227513        -105291
   1976.00000000         100037          15886        -591321        -480803
   1980.00000000        -494528        -146283          34668          49714
   1984.00000000         104818         293850         -72566        -135001
   1988.00000000          45514        -169571         123991         -27464
   1992.00000000         177130         -36567         417859         519901
   1996.00000000         107720        -182184        -268849         -87320
   2000.00000000         -49995        -453465         131018         161904
   2004.00000000         328535          74385         -96767        -299432
   2008.00000000        -353751        -219732        -368538         207459
   2012.00000000        -483598        -240300          80974          75948
   2016.00000000         186040         172903         147720           3779
   2020.00000000        -307718        -180853         352956         104486
   2024.00000000         231456          49651         -38527         229821
   2028.00000000         -81723         -77274         -36386        -234579
   2032.00000000         129692          75922        -186196         296073
   2036.00000000         360327         488945         382580        -174609
   2040.00000000        -233140        -375304         117046         171106
   2044.00000000         375310         116869          18945          67798
   2048.00000000        -290780          56707        -156539        -164888
   2052.00000000        -111809        -132444          70614         367142
   2056.00000000        -104269         364727         177591          92024
   2060.00000000          15056        -117873        -543329        -260969
   2064.00000000        -418910           8291         363404         407244
   2068.00000000         292998         119930        -130895        -183862
   2072.00000000        -531881         -63383          49821        -125418
   2076.00000000         389194         151818         395760        -148978
   2080.00000000        -230998          96864         -37543        -242114
   2084.00000000        -260722          29451        -174897         297997
   2088.00000000          48394         143149         186618        -129436
   2092.00000000        -232424        -191528        -134187        -183977
   2096.00000000          10065         -83989          95746         116927
   2100.00000000        -200091           3189         -31336        -158358
   2104.00000000         124562         292448         -60451         153673
   2108.00000000          98719         116752         219413           3128
   2112.00000000         223602        -382128        -189897         -53915
   2116.00000000         106773         360744         208270        -133990
   2120.00000000         -18871        -155860         142875        -110235
   2124.00000000         -23565        -206333          38498         -85877
   2128.00000000         -21784         489567         195944         149881
   2132.00000000          66707        -323676        -343174        -440529
   2136.00000000        -117956         379658         151474         137046
   2140.00000000         347729         -19785          41764         -55705
   2144.00000000         113024           -902           4197         155671
   2148.00000000         -26452          80470         236697         -21850
   2152.00000000         109390         136230           8647        -165965
   2156.00000000        -371655         -82583           -389         295852
   2160.00000000         -11439         122689         143279         102656
   2164.00000000        -145156         -28923        -115727          35540
   2168.00000000         -18224         129351         -93665         -57154
   2172.00000000         -82016         174610         -43050        -188579
   2176.00000000         -78490         293694         116842         -41818
   2180.00000000         474966         280662          18400          37663
   2184.00000000          14589        -307905         -19232        -180635
   2188.00000000          -7020         169086         -16412        -364501
   2192.00000000        -207129         -44165         213542          15566
   2196.00000000        -143681         -51041        -173801         -26027
   2200.00000000         304962          19034         204357         -15574
   2204.00000000         -22364          46889          52538          57528
   2208.00000000         262628         180953         119558         155535
   2212.00000000          12945         -25130         -90162         120180
   2216.00000000          11578          21209          95822         -44346
   2220.00000000         -87038         121034         417772          32360
   2224.00000000          70450          26012         -93711        -246973
   2228.00000000          40880         171580         228008         156163
   2232.00000000         108076         -79508          11540          42443
   2236.00000000        -136272         137880         119889         241049
   2240.00000000        -250971         -73648          85676         202183
   2244.00000000         -27789          28848        -124013         -81022
   2248.00000000         158718          54182         186503         100281
   2252.00000000         177310        -118122        -156533         120573
   2256.00000000        -247755          -9831          23018         -32443
   2260.00000000         106492         354985         115241          99219
   2264.00000000          10169         142675         -87858         -69451
   2268.00000000          43832         -41367         266927         216735
   2272.00000000         -87766          47060           6617        -272313
   2276.00000000        -251742        -150365         -16053        -122603
   2280.00000000         112645         158680          48163        -121371
   2284.00000000          43957        -195166         -64890          66314
   2288.00000000         -38157          27416           -707         132875
   2292.00000000        -116259         132510          74352           3192
   2296.00000000        -104680        -223711          33916         -87708
   2300.00000000         -86460         226528         245157         157762
   2304.00000000          23554           5401        -145179         -70997
   2308.00000000        -176698          -4797          31511         167052
   2312.00000000          57932         -29822          35872        -101858
   2316.00000000           2285         -88057         -23865         -24978
   2320.00000000          66512        -109650          21858         -76424
   2324.00000000         143698        -185804          -1151          88646
   2328.00000000          89638          78876         -60120         -84651
   2332.00000000        -172344          76234          23644         117032
   2336.00000000          78129           9941          79291          54426
   2340.00000000          -7305          90680        -144575          20752
   2344.00000000          87976         261226        -179601        -107842
   2348.00000000        -209556         -64229          49302         -83805
   2352.00000000         250781         -86189           6988         148714
   2356.00000000             -4         -18116         -58329        -273890
   2360.00000000        -205407        -207187         -40865         177399
   2364.00000000         188520         334847          24397         -43672
   2368.00000000         -39079         -91236          35229          36720
   2372.00000000        -157078         -42342         -37991         -22732
   2376.00000000         223092        -124392        -128900           1920
   2380.00000000          -4796         -60856        -181539         -43264
   2384.00000000          -5005         -70521           5602         -15105
   2388.00000000         191785         -36351        -178459          80109
   2392.00000000        -101658           9888        -101527         -19872
   2396.00000000        -193714          36509         115354         -94650
   2400.00000000         -44352          98981          42746         -47750
   2404.00000000         -55170         -14423          62407          35911
   2408.00000000         -55362        -103085         -31368         -55919
   2412.00000000          -5977        -224424         -58860          40358
   2416.00000000          97991         -86539         -35593         137673
   2420.00000000          86532         -85451          14991        -110681
   2424.00000000         189169         -67873         -78635          91585
   2428.00000000         115350         217612         -68988        -138316
   2432.00000000         -60364          46249          26592            447
   2436.00000000         129243         -91108         -10106           6073
   2440.00000000          80505         -35205        -100380         104198
   2444.00000000        -115085         -55038          95771         -27433
   2448.00000000          12137         128130          93619         -79825
   2452.00000000        -128155         -54155         -24264          41352
   2456.00000000        -127313         118157         154698         -18221
   2460.00000000         182154         172975          20750        -216140
   2464.00000000         147541          12990         -51623         187280
   2468.00000000         147812         159771         137564         213749
   2472.00000000          96847        -204129        -207484        -179678
   2476.00000000         -38758         -64414          42462          36945
   2480.00000000         157693          72167         -66868          57689
   2484.00000000        -220293          56796        -158139          38389
   2488.00000000         167031        -103383          84329          44350
   2492.00000000         235955        -113098        -123630        -336919
   2496.00000000          38621         -62652            751          52657
   2500.00000000          -1179        -124954           8900        -106322
   2504.00000000        -110860          58283        -128960        -122351
   2508.00000000          91379         -94464          67057          -8050
   2512.00000000          53208         105556         -78533          97765
   2516.00000000          31069        -177954          78551          91190
   2520.00000000           4682        -117734           5726          35576
   2524.00000000         -11643          -4863         199568          -2272
   2528.00000000        -234172         -79692         -61171         -19498
   2532.00000000          71787         126055         172120          12028
   2536.00000000          81377        -140723         132837        -163059
   2540.00000000         123276          24135         142696          35934
   2544.00000000         -22956         211055        -111760        -260446
   2548.00000000         -51817          10269         -24355         150764
   2552.00000000         -12233          51466         109355         149761
   2556.00000000         -26512         -53423         -88191          30226
   2560.00000000         -58689         -79466         155633         -46625
   2564.00000000         -57859         172708        -109003         -91922
   2568.00000000         -11908         119029         127386         -13821
   2572.00000000          33991         -46054          30588           2484
   2576.00000000          -3935         -52638          65987          -1305
   2580.00000000         100362         -18602        -109891         -47481
   2584.00000000          71225         134018         -54308         -92212
   2588.00000000         -24452          36657          -6207          57043
   2592.00000000         -26048        -117705         111700         144279
   2596.00000000         -31812         -28121        -121769        -158366
   2600.00000000          74899          70266          19617         -73740
   2604.00000000         -55905          68333          55249        -214772
   2608.00000000        -162043         -27749         -66110          85611
   2612.00000000         190973        -148267         -10826         114863
   2616.00000000          94386           4921           -490          -5947
   2620.00000000          15805         -34699         -39560          29753
   2624.00000000        -163852         -39917         -55155         -74313
   2628.00000000         -75425         -61534         -61056        -148923
   2632.00000000         -14454         -80004         210745          81694
   2636.00000000         -66408          29344           5019         174405
   2640.00000000          58048           2402         -92192        -139605
   2644.00000000          29094          -6909         -25651          29064
   2648.00000000          20269          19374         -45561          25712
   2652.00000000         -29918         163006          61693        -155869
   2656.00000000          91197          64878          29337        -107783
   2660.00000000          63985          87226          19225         -35921
   2664.00000000          35835        -125005          45084            491
   2668.00000000        -168791          53634         -35119           2366
   2672.00000000         -62217           2378         -33775         115664
   2676.00000000         102834          74577          68294         -10475
   2680.00000000         -45125          41355        -111683         -12896
   2684.00000000          10782         -33998          35989          14445
   2688.00000000         138323         -24259          -6608         -43730
   2692.00000000         -42866          88047           2146         107640
   2696.00000000          81717          82764          56572         128708
   2700.00000000        -114823            570          70618          33623
   2704.00000000         -38646         -46594          78515          29938
   2708.00000000         -65896         -26948        -106947         149961
   2712.00000000          43780           5468         -13027         -23944
   2716.00000000         -45168           3321         -22952          41070
   2720.00000000         -44877           6710        -150672         -55761
   2724.00000000         101903         -51053         -11637         -19044
   2728.00000000          18131          86395          29226          10665
   2732.00000000           9932          48558          -5257         -10259
   2736.00000000         -63207         -65417          14353         -30801
   2740.00000000         -24085         -53827          26750        -120054
   2744.00000000         -19019          57413         103454          34068
   2748.00000000         -41022           2519          37357        -207530
   2752.00000000          83702        -129612          -8112         -55665
   2756.00000000         -39468            965          20315          48367
   2760.00000000          58775         -27313         -45490          22831
   2764.00000000         -65117         -86047          17425         -48119
   2768.00000000          21748          78742         -32434          49096
   2772.00000000         -83887         -75853          50730         -50929
   2776.00000000         -83064          51487         106729         -22144
   2780.00000000          40614        -118118           7075          51926
   2784.00000000           6132          38733         -40578          64439
   2788.00000000         -74450          76883          54745          16514
   2792.00000000         -81648         107857         -29146         -14560
   2796.00000000         136398          62600         -90491         -19755
   2800.00000000          77232          -6386          -8673         101162
   2804.00000000         -83992         102599         -27717          44156
   2808.00000000          59228          62149            -44         -22397
   2812.00000000           1507          76834           -982         -26109
   2816.00000000         -54792           3964          14532         -34697
   2820.00000000        -113676         -15926         142599          26008
   2824.00000000         -15650         -43837         -43223         -64119
   2828.00000000         -34480         125333          38957         -77042
   2832.00000000          51669         -42620          29437         -42618
   2836.00000000        -134739            978          53329         114572
   2840.00000000          44569          27924         -33734          32783
   2844.00000000         -43171         -82123          19793         -32032
   2848.00000000          -7754          25776         -97234          99191
   2852.00000000          91065          52767          48982          32427
   2856.00000000          64700         -23684            608         -51379
   2860.00000000          59452          -1373          31476          -2100
   2864.00000000          37700           2827         -41270          33483
   2868.00000000           6795           8274          11428         -58139
   2872.00000000          31138          34644        -104907         -37508
   2876.00000000         -98027          71511         -25726          -9602
   2880.00000000        -102167         137140         -43946          48110
   2884.00000000          -9961         -80018         -30230         -64814
   2888.00000000          14463         -69470         -61707          38410
   2892.00000000         -22004          89600          71509          19341
   2896.00000000         117240          92317          -3087          32496
   2900.00000000          68866         -41776          32683          43868
   2904.00000000          78768         -42285          89038            -33
   2908.00000000          69572         -39764         -30509         -15213
   2912.00000000          84954         -71310         -45148         -11000
   2916.00000000         -26851         -38330          23149         -38983
   2920.00000000          57615          21311         -22755           1632
   2924.00000000         222056         -41170          44262         -44339
   2928.00000000         -76578          48680          -1950         -64423
   2932.00000000         -27960         -93001         -34076         -14100
   2936.00000000         -80396          33391          69286          41025
   2940.00000000         -62069         -72971          44348          61917
   2944.00000000          19437         -22725         -63565         -28746
   2948.00000000           9532          39608          21090          -9899
   2952.00000000         -24806         -57586         141905          -4504
   2956.00000000          81244          38921          17741         -33159
   2960.00000000           8767         -94440          45134          13636
   2964.00000000          28973          38121          17813          76110
   2968.00000000          53335          80492          34097         -40319
   2972.00000000          60158          -4642         -35045         -69502
   2976.00000000          55101          11247          86817          95118
   2980.00000000           5697         -33748          14715           -701
   2984.00000000           6614         -38128          -5761          24475
   2988.00000000            584          30102         -60570         -96370
   2992.00000000           7532         -54618         -13496          91895
   2996.00000000         -30741         -61511         -41482         -46370
   3000.00000000         -58014         -35628         -18355           4893
   3004.00000000          29759          15457          12083          63253
   3008.00000000          40208         -19379          36255         -48346
   3012.00000000          29736          14848          60674          -6392
   3016.00000000         -26156          58845          32682          27281
   3020.00000000         -42424         -27151          13852         -17824
   3024.00000000         -20122         -48315         -13248          53265
   3028.00000000          67988          43215          46100         -74940
   3032.00000000          29167          45777          34358         -18148
   3036.00000000          67008          41399         -49399         -14713
   3040.00000000          50434          25835          21843           6663
   3044.00000000         -51093          31037            757          15609
   3048.00000000          14094          -3645         -56682         -54547
   3052.00000000         -21731         -42093          -7233         -79082
   3056.00000000          34798          64083          15747           9865
   3060.00000000         -41774          15667         -28301           -525
   3064.00000000         -14193          20399          63510           1120
   3068.00000000          -5615          42851          50674          34721
   3072.00000000         -40336           8703          92468         -81877
   3076.00000000          42925         -49852          26923          29907
   3080.00000000          80535          14142         -12723          25747
   3084.00000000         -23756          27953          61621          37874
   3088.00000000          -9688          39776         -61894          12500
   3092.00000000         -30865          14154          24525          26062
   3096.00000000          53092          -6382          18197           -655
   3100.00000000          47805         -45920           5102          23574
   3104.00000000          -3256          -2289         -11137          -2676
   3108.00000000          14219          33035         -40868         -36120
   3112.00000000           1943          33521          61519           1721
   3116.00000000         -43366         -16077         -41884          31328
   3120.00000000         -31749         -14087          36966          -2098
   3124.00000000         -31000         -15532           8329         -53135
   3128.00000000         -82641         -25930          -4824          -9825
   3132.00000000         -33421           1241         -63030           2375
   3136.00000000          55562          19196         -55748          -3953
   3140.00000000          24809           1926           3056         -50651
   3144.00000000          41585          34305           1399         -32743
   3148.00000000         -10126          44376         -32993         -11167
   3152.00000000          28406          12307         -43041          29482
   3156.00000000          -8301         -38773           8768         -30875
   3160.00000000          -2416         -53802          -1896         -22288
   3164.00000000          36574           3977         -40318          58259
   3168.00000000         -21817          26298          20832          37771
   3172.00000000          -2382          43883          23803          10136
   3176.00000000          46349          21381         -24199         -14757
   3180.00000000         -32210          -9815          55855          44862
   3184.00000000          82713          52438          49515          -5699
   3188.00000000         -20758          43621         -30503          17293
   3192.00000000          42637         -85591         -20824         -16013
   3196.00000000         -44118           5544          51429         -73027
   3200.00000000          -8980         -55983         -39067         -14746
   3204.00000000          78950          35667          46571          13181
   3208.00000000         -42978          73152         -67099         -11977
   3212.00000000          49393          10353          49597         -32047
   3216.00000000          48702         -75345         -79458          32023
   3220.00000000          17764          87789         -17138         -23473
   3224.00000000         -15832          -1405         -25481          49744
   3228.00000000          -8178         -30917         -76965           7411
   3232.00000000         -11981         -33998         -15094          30954
   3236.00000000         -32341         -13279         -31320          12664
   3240.00000000         -10416         -21448         -36598          40644
   3244.00000000         -60678         -31717          40351          67598
   3248.00000000          54976         -13376           6889         -12859
   3252.00000000          -4878          11978          39476          31585
   3256.00000000          91494           8520          24991          -7245
   3260.00000000          15920          70721          31073          -9419
   3264.00000000         -31327         -23881         -23127          -1380
   3268.00000000           6722          19462          62416          39724
   3272.00000000         -20433          32140          16869          -7927
   3276.00000000          33422          85791          11538          30137
   3280.00000000         -33496         -19740           1940            540
   3284.00000000           8873           7600         -11124         -40038
   3288.00000000          -2096         -61464          26865          16283
   3292.00000000           4863          33376            -52         -43416
   3296.00000000          15470          25985          67757         -43872
   3300.00000000          13440          12865           2727          48820
   3304.00000000         -45982         -15195           6246          19980
   3308.00000000         -59391         -39800          30191         -25164
   3312.00000000          16911          24419         -11594         -13495
   3316.00000000          46407         -23611          -8595          38095
   3320.00000000         -65859           3398         -32671          49733
   3324.00000000         -23414          15030           4979           3773
   3328.00000000         -27440          -7446           5963          59851
   3332.00000000          16352           5691           9917         -14301
   3336.00000000          53285          -3162           4074          29411
   3340.00000000         -10106         -46712           4982          25400
   3344.00000000          28565         -16940         -19072           -933
   3348.00000000          47149         -25486         -15471          38828
   3352.00000000          11565          -4532          15219         -42142
   3356.00000000          -8728          25724         -39124          30852
   3360.00000000          16461          -3630         -14888          35501
   3364.00000000         -25771         -15368           2726          60714
   3368.00000000          42015          17887         -38604         -30098
   3372.00000000         -66517          -1441          -5734          18790
   3376.00000000         -18629         -44611         -23439          14737
   3380.00000000         -30180         -23640          22110          57992
   3384.00000000          16138          10217         -38733          -4739
   3388.00000000         -11784          48406         -19573          -8569
   3392.00000000          12099          60926          -2271          46893
   3396.00000000         -15575          33286         -22921          38961
   3400.00000000          -1987          -1375         -25912          -1382
   3404.00000000         -26016          12026          47411          -6087
   3408.00000000          -8977          48920          15502          39290
   3412.00000000            234         -17771          15908          34450
   3416.00000000          -8662         -19198          -3225         -12697
   3420.00000000           8680          19212         -25006          39585
   3424.00000000           2301          37026          49902         -27300
   3428.00000000         -12814           1096          74562         -42610
   3432.00000000         -49473         -25943         -11018         -20376
   3436.00000000          23336          -2977         -19774         -14684
   3440.00000000          47294         -41306         -20737         -45021
   3444.00000000           4646           8546           4276          -8246
   3448.00000000          34953          -7562           5886          34140
   3452.00000000          15099         -15901         -34342          44085
   3456.00000000          37654          31824          10763         -16268
   3460.00000000           9310         -49687          -1010           4243
   3464.00000000          10127          17816          25380         -31475
   3468.00000000          16668         -31353          33850         -21818
   3472.00000000          15142         -10943          -8340         -39117
   3476.00000000         -40609          -1606          12974          40076
   3480.00000000          -1557           2935         -18535          25978
   3484.00000000          -4149          22918         -10248         -14807
   3488.00000000          12074          -2896          18564         -35552
   3492.00000000         -20289         -41492          -1090         -12835
   3496.00000000          10098          22544           2054          31302
   3500.00000000          16889           8056          -9486         -35413
   3504.00000000         -19237         -33008         -19217         -39695
   3508.00000000          33984         -20013          16171          18890
   3512.00000000         -15571          -2912         -29209          -9223
   3516.00000000         -37400         -24224          15181         -16723
   3520.00000000         -30789          41800          14996          -8673
   3524.00000000           7371          21566          26530           3679
   3528.00000000          24253         -25478         -25402          26188
   3532.00000000          12426          -8753           2255          21201
   3536.00000000          53400          -7290           8434         -48926
   3540.00000000          -4064         -31129          -5426           9590
   3544.00000000         -12840         -62318         -32863          23512
   3548.00000000          33305          -3786          -6920          25551
   3552.00000000          -2653          -3090           8799          46104
   3556.00000000          12687          -7032          10327         -34026
   3560.00000000         -17489         -19780         -47736          15617
   3564.00000000          27389          13308          54885           -853
   3568.00000000           7298          -5872         -23950         -31340
   3572.00000000           2424         -30074          -1479          26696
   3576.00000000           9008          -2097          28940         -21082
   3580.00000000          -3524           7577         -15948          12562
   3584.00000000           6944         -14616          25850          -5494
   3588.00000000          15727          46918          -8680         -12719
   3592.00000000           3237          15794         -24631         -34631
   3596.00000000           2523           7713         -13144          17605
   3600.00000000          -5250          18133          -2197         -24234
   3604.00000000          -7717         -28197          10559          -3429
   3608.00000000         -22871          18634         -27795          11068
   3612.00000000           7256          36861         -28175         -13116
   3616.00000000         -41018          11996          12581           6213
   3620.00000000           7811          47658         -24186         -12607
   3624.00000000          -2500            624          19248         -18879
   3628.00000000          44401           9238          -9238          -7903
   3632.00000000         -16108          28919          -6349         -22153
   3636.00000000          14224          20823         -16493          50763
   3640.00000000          43498           -272          17418          10661
   3644.00000000           4477          24581          -5865           1993
   3648.00000000         -38673          13193          12920          26314
   3652.00000000            537          18952          18852            775
   3656.00000000          25576          14453          23270          11262
   3660.00000000          -5755          14217           9186          -5501
   3664.00000000         -36180         -20766         -28251          16344
   3668.00000000          -7213          -1203           -227           9479
   3672.00000000          -3321           -651          36114           7970
   3676.00000000           7340          27045         -33234          44845
   3680.00000000           7358           -198           5590           5434
   3684.00000000          16612           4470         -17815          -5343
   3688.00000000           8166          15575          28961         -15347
   3692.00000000           -584          28398          -2923         -27690
   3696.00000000          46616          -5584         -12378           4815
   3700.00000000          17791           4886          -3696           2185
   3704.00000000           2350           6693         -27739          -3399
   3708.00000000          11397          33443         -13091           4087
   3712.00000000         -16937          -9371         -32091           1815
   3716.00000000         -12542          -9855          -6131         -12700
   3720.00000000          11128            710           9396         -17673
   3724.00000000          25570           -571         -18024           8013
   3728.00000000         -39255         -13360          11795           9830
   3732.00000000          12265         -10037           2951          12759
   3736.00000000          12233         -12057          14739           7776
   3740.00000000         -21147          25341           -120         -36858
   3744.00000000         -15279          -5767          13495          12414
   3748.00000000          -3695         -21200         -18716          20828
   3752.00000000         -22192          -2402           4673         -15739
   3756.00000000         -21694         -13789          13711         -26989
   3760.00000000         -13583          21011         -34497          35579
   3764.00000000         -14945         -21638          10482          -8541
   3768.00000000          -2105          -1734          12571          -8435
   3772.00000000          -6928           4102          12803         -13367
   3776.00000000          11629          18348          14270         -10243
   3780.00000000          -2156          15349         -25608         -19560
   3784.00000000          32586           7201           7313         -22612
   3788.00000000         -35858          22388          -9563          -1118
   3792.00000000         -15682          11810          39773          31529
   3796.00000000          -6134          -1590          23242           4901
   3800.00000000          13027          -6531          -6224          -6124
   3804.00000000         -14299          10461          14212          -4551
   3808.00000000          -2857          18695           1067          -3315
   3812.00000000            536          34034          15127           3122
   3816.00000000          17961         -11680          -7103          -7167
   3820.00000000         -17238          15882          33655           7687
   3824.00000000         -21280           2682          10040          -3052
   3828.00000000         -20654          -1056         -12790           3387
   3832.00000000          12861           8870          10024           1066
   3836.00000000           9993          12702         -27879           6647
   3840.00000000          21376         -37235         -25481         -21442
   3844.00000000         -14197          18477          23839           7395
   3848.00000000          -8391          -4119          -9232         -11911
   3852.00000000          29658          51051         -12539           4001
   3856.00000000          -1506          29429         -18901           7142
   3860.00000000           3653          30112          12453         -10379
   3864.00000000           2269         -11933          -7583           1053
   3868.00000000          13201           8793          13932          -7559
   3872.00000000           6011          16298          24252          -6761
   3876.00000000          12976           7900          -6799           8138
   3880.00000000          -2427           3071          -4626          13979
   3884.00000000           5222          18428          30662           6137
   3888.00000000         -17360           4620          -8993           8438
   3892.00000000         -16560          -7157            343          14482
   3896.00000000         -10054          -2324          -4890         -16682
   3900.00000000            470          23569         -13861          -8209
   3904.00000000          29741           6273          -3291           5403
   3908.00000000          -1764         -10770           8634           5448
   3912.00000000           4000          17374            548          20978
   3916.00000000           9562           7219          -2397          -1967
   3920.00000000          -3503         -12460           7308          -7460
   3924.00000000           5756          -1014         -27650         -16909
   3928.00000000          -5943           8345          19451          27156
   3932.00000000          -3886           5612          16850           6483
   3936.00000000            633          -1864           3929          18451
   3940.00000000         -11999         -13346         -18088          -3723
   3944.00000000          17469          23993          -5535         -12240
   3948.00000000           9933         -16276          16057           5860
   3952.00000000          13077          -2328           7222           5161
   3956.00000000         -17678          15692          15198            206
   3960.00000000            549           -870          -6847            638
   3964.00000000          17520           -578          20618          -8434
   3968.00000000          31024          16118           6703          18604
   3972.00000000            268           -154          10949          -8290
   3976.00000000          27449          -9348          -3444          13057
   3980.00000000          14764          -3557           9933         -13747
   3984.00000000           4273           2327         -10000          16598
   3988.00000000          24449          17104          -1881          -6966
   3992.00000000         -10184          -6248          10746          -4537
   3996.00000000           3314         -15828          19623          17690
   4000.00000000          -3427         -24401         -15997          34561
   4004.00000000           8969           3443          -9249           9755
   4008.00000000          14653           5435          15482           8870
   4012.00000000           8683           -586           6420           3549
   4016.00000000           9007          -6756         -21247          -1009
   4020.00000000          -2015           3034          24055             40
   4024.00000000         -13833         -25395           2537          10059
   4028.00000000          -4130           1143           4017          -5657
   4032.00000000          24207           3183           6060         -21217
   4036.00000000          -6645          24420           6688           -234
   4040.00000000         -15258          16544           1185         -22175
   4044.00000000          -9773           5280          20420          10535
   4048.00000000           9286           5373           2935          -8045
   4052.00000000          22471           7211          -6644          21948
   4056.00000000          13723          -2050          -4506         -24811
   4060.00000000          15888          -3531          10013           1729
   4064.00000000          -5653          -1373          10755         -15206
   4068.00000000          14005         -18250          18855          11558
   4072.00000000          -3941           1928           6222           6570
   4076.00000000          10725         -21009           4353           -941
   4080.00000000          -1785           2148         -14871          -1255
   4084.00000000          -1942          15090            475         -21283
   4088.00000000         -19281          -2527           3143           1007
   4092.00000000          -9298          16302          -1530           8095
   4096.00000000          -2353           8407           3914           3664
   4100.00000000           4747          11823         -12366          16956
   4104.00000000           4215         -14773          -6320          -6892
   4108.00000000          13516          -2556          10805          22447
   4112.00000000           3544          -2092          -3811          -6001
   4116.00000000         -18710          -8433           -408          15162
   4120.00000000           9332         -17919         -23729           4066
   4124.00000000            747         -10952          12142          -6632
   4128.00000000           6540          -5112            986           8128
   4132.00000000          15197          15369          -4241           6050
   4136.00000000         -11995         -12043          -2927          10463
   4140.00000000          -3343          -3830          11725           5202
   4144.00000000           5789         -16183          -6080          10099
   4148.00000000          10093          -6925          -7869         -17697
   4152.00000000           2975          -1430            963          -2752
   4156.00000000          11253          -4629         -17745          10001
   4160.00000000          -8718          -2974          -9135           -145
   4164.00000000          15725         -23445          13591          -6155
   4168.00000000          -7397           5694           1463           3520
   4172.00000000          17552           7776         -10016           1549
   4176.00000000          -3390          22298          13534          -4180
   4180.00000000          19863           5612          -2905          -1216
   4184.00000000         -14305          -6336           5248          -1896
   4188.00000000           6254          -6909          -7699           -960
   4192.00000000          22251           3440           6425          -9881
   4196.00000000          -9108           6327          -2849           2330
   4200.00000000          -1788           2307         -11479          -1873
   4204.00000000          14646           8050           6275           5089
   4208.00000000            400         -15861            328         -10057
   4212.00000000         -10634         -12238           7682          10816
   4216.00000000            413          -4516           9690          -8730
   4220.00000000          -4842            826           8693          -3512
   4224.00000000          14641         -10215          -2910          11100
   4228.00000000          -3149           7890         -13940         -12542
   4232.00000000         -22766           6183            407          -2450
   4236.00000000          -9658         -15566          -4731          -5474
   4240.00000000          -5926          -8256         -15352           -467
   4244.00000000           9255           8743            743          10401
   4248.00000000          18397          20483           4239          -8577
   4252.00000000          -1875          -3189          15177           5307
   4256.00000000          -4163          13958           2555           7241
   4260.00000000         -16318          -1307           -360          -8520
   4264.00000000           4399           2064           2024           4770
   4268.00000000          10524            305         -11291           3369
   4272.00000000           8222          10014           2079          14748
   4276.00000000         -13937            729          -1226          -2856
   4280.00000000          -7818           9551          -6602          -3213
   4284.00000000          17474           9439          -3588           4837
   4288.00000000         -15489          -5296          -6794         -17054
   4292.00000000           3057          -2049           8871         -10729
   4296.00000000           6779          -3501           -778           1863
   4300.00000000           3326         -11352           4299           1126
   4304.00000000           2654          10182          -4966           6584
   4308.00000000          -2828           8724          12734          -3151
   4312.00000000            770           2417            632          -3713
   4316.00000000          10761           4288           1194            397
   4320.00000000          -2266         -11486           2200          -1623
   4324.00000000          -4628          -7070          10809           1528
   4328.00000000           2023          -2340          -9911          -7332
   4332.00000000           -152          -9480          -1434          13909
   4336.00000000            230            742            694           1598
   4340.00000000          -7108           1575          -7873          20633
   4344.00000000          -6342          -3846          18428           1801
   4348.00000000            270          -5362          -1901          -3541
   4352.00000000         -17725            292         -10211          13045
   4356.00000000          -2820           8303           7173           1523
   4360.00000000           4164          -7949          -4224          -6820
   4364.00000000          14711          -3580         -13212           7077
   4368.00000000          -3209          -4435           2797           3446
   4372.00000000          -8469          -8631            904          -4664
   4376.00000000           1831             39          -4502           8853
   4380.00000000           2852          10117          -5894           7433
   4384.00000000           8839          -5094          -2846           3258
   4388.00000000           5955           3970           3272            554
   4392.00000000          -3869           8871           6799          11969
   4396.00000000          -2044         -12081            289          -4699
   4400.00000000          12081         -12467           9112           3246
   4404.00000000          -1992           -117           1528           5319
   4408.00000000          16886         -12915           6815          10885
   4412.00000000           5870          -1235          -3011          -8919
   4416.00000000            348           3606           7921          -7627
   4420.00000000           6418           8417           2925           -258
   4424.00000000          10875           1993          15949         -10007
   4428.00000000           3477           2608           -455           7338
   4432.00000000           2149            644         -15084           4728
   4436.00000000           -785          -2152          -2358           3862
   4440.00000000          -8424            928           9115           5190
   4444.00000000           6233         -11541           7177           4233
   4448.00000000          12413          -7549           5003          12822
   4452.00000000           3501           1516           3848          11295
   4456.00000000           4306           1324           2823           4711
   4460.00000000         -11498          -1260           6770           2001
   4464.00000000          -3899           3854           2358          14809
   4468.00000000           9778           1307           3314           2235
   4472.00000000          -1172           8366            629            564
   4476.00000000          -2935           1203           1545           7562
   4480.00000000           1904          -8967          13305         -11337
   4484.00000000           -810          -8969           -800          -1986
   4488.00000000           8658           -486           7734          -9137
   4492.00000000          -3050          -1630          -4018          -1495
   4496.00000000           7343          -1106          -1442          -3032
   4500.00000000            955          -9918           8468          10179
   4504.00000000           8056           4746           8747          -3777
   4508.00000000           3352          -8248           4196          -6466
   4512.00000000          -8461           2597          -3712           2073
   4516.00000000         -11297          -1702           1426           2360
   4520.00000000          -1501          10723           8045          15265
   4524.00000000           7726           5505          -7090           6640
   4528.00000000           -599           2796           -819          -8154
   4532.00000000           2559          -3082            395           4699
   4536.00000000           3867          11666          -7215            -72
   4540.00000000          -9697             24           2422         -12268
   4544.00000000           2586          -4534            704           -352
   4548.00000000          11520          -3568           5323           8873
   4552.00000000           5399           8525           8205          -2139
   4556.00000000          -5232         -10066           1943          11834
   4560.00000000            416            176           2172           6275
   4564.00000000           1743          -3523           5350           1673
   4568.00000000           -942           -509           2581           1482
   4572.00000000          -4884           2414          10815          -2413
   4576.00000000           4437           1508           1484          14958
   4580.00000000          -2689          -2769           8057           1386
   4584.00000000           -769           2233          -6006           3638
   4588.00000000           3079           -914          12984          -5823
   4592.00000000           3411          14072           8581          -3389
   4596.00000000           1663           4160         -11455          10782
   4600.00000000           1502           2490          -2961          -1733
   4604.00000000           4345          -4819           6423           3181
   4608.00000000           1124         -11744         -12656          -1358
   4612.00000000            871         -18171          13050          -1387
   4616.00000000            606          -1742           4874          12162
   4620.00000000          -1081          -5486          -1200            926
   4624.00000000           3733           5722          -9139            674
   4628.00000000           9135          -6582           1091          -2423
   4632.00000000            640           5066           4955          -6933
   4636.00000000           3933           4412           9686            839
   4640.00000000           4502          -2642          -9551          -2144
   4644.00000000          -2732           1824          15966          -2916
   4648.00000000           -900           3781          -5771           4250
   4652.00000000           1744          -4765           5519            928
   4656.00000000           1969          -8810           6108          -8811
   4660.00000000           1604          -8276          -1474          -8822
   4664.00000000          -9667           2616           2288            916
   4668.00000000            223           1411           8572          -1133
   4672.00000000          -4191           5406           1547          -3300
   4676.00000000          -1329          10034          -1851            -60
   4680.00000000           2062           6217          -4047          -3330
   4684.00000000          -2085           6047           -109           3788
   4688.00000000          -5871          13547           9205          -6243
   4692.00000000          -1775          -3948           8323           4094
   4696.00000000           3836          12736          -5938           5119
   4700.00000000          -2092           4152         -10376           2758
   4704.00000000            -49           4484           2197           2289
   4708.00000000          -1967           1510            -39           4023
   4712.00000000          -1298           4375          -1990           2436
   4716.00000000             67          -2058          -3726          -9668
   4720.00000000           9607           3394           5667           4333
   4724.00000000           2030          -3824           3717           2495
   4728.00000000           9214          -1236           1272           2948
   4732.00000000           3743           1288          -5478            531
   4736.00000000           6461           7883          -1582            871
   4740.00000000           -638          -6469          -4696           5969
   4744.00000000          -4084           9593           5923          -9081
   4748.00000000            945            -48           5367          -7238
   4752.00000000            926           7716          -1125          -2130
   4756.00000000          -4483          -2694           3784          -1713
   4760.00000000           2451          -1580           2877           4483
   4764.00000000          -2689           9395            871          -7701
   4768.00000000          -1037          -4976          -2750           3418
   4772.00000000          14217          -5639           1771           2367
   4776.00000000          -3666          -3093          -2194           1593
   4780.00000000          -3801          -1373          -2034          -5784
   4784.00000000           6834          -1165          -4663           4477
   4788.00000000          -4862           1736          -3977          -7208
   4792.00000000          -5933          -5199           8589          -5022
   4796.00000000           -953           5104          -1965           5696
   4800.00000000           -549           2532           6618           6197
   4804.00000000           2658           1076          -5523          -1124
   4808.00000000           1419           2027          -1936          -9664
   4812.00000000           -659           -993           4838           -780
   4816.00000000           2283           3049           3353           5432
   4820.00000000           3342          -5110           -265           6985
   4824.00000000           3995           2129          10883            872
   4828.00000000           2955          -7106           3644          -1282
   4832.00000000          -7334           6575           1686          -5025
   4836.00000000          -1414           5949           2007          -2513
   4840.00000000           4398           2725           8267          -2376
   4844.00000000           1655           9971          -5686           6318
   4848.00000000          -2536           2630          -2346           -139
   4852.00000000           -549           7582           2048           4641
   4856.00000000           -598           2448           4417          -4376
   4860.00000000          -3269           2919          -5662           2753
   4864.00000000            646          -8074           3801           8113
   4868.00000000            830          -5886          -4417          -2045
   4872.00000000          -1955           -409            518           2908
   4876.00000000           1020           3418          -1598           -679
   4880.00000000            991           1219           1057           5603
   4884.00000000          -2971          -4550           2805           4352
   4888.00000000           7925          -1960           4647          -3371
   4892.00000000          -1966          -3930           2548          -1809
   4896.00000000             70           2887          -4454           3330
   4900.00000000           5412            920           2123           5079
   4904.00000000            810           3729           5942           3530
   4908.00000000           6428           2611          -5169          -1330
   4912.00000000             26          -2331           6593          11123
   4916.00000000          -1065          -5113          -4027           1438
   4920.00000000          -2523          -2597            196            942
   4924.00000000           -691           5896           4019          10827
   4928.00000000          -1078           7165           -625          -1836
   4932.00000000           1780           3616          -4700          -2671
   4936.00000000          -2512          -1812           6927           7299
   4940.00000000            881          -5346           -199           1611
   4944.00000000          -1577           2419            596           3001
   4948.00000000          -1434           3710           6523          -2841
   4952.00000000           2567           1746          -2921           1240
   4956.00000000          -1552          -2435          -3318          -3164
   4960.00000000            233           3257           2253            324
   4964.00000000            635           -954          -3526           1525
   4968.00000000           2753          -3518            926          -1101
   4972.00000000           3332             54          -1196           7789
   4976.00000000          -3340          -4892           -156          -3946
   4980.00000000            -29            539           3299           -797
   4984.00000000           -214           3209           -377          -1084
   4988.00000000          -1620          -1152          -6279           3426
   4992.00000000          -1208          -6780          -4057           2885
   4996.00000000          -2957           7885           -271           4503
   5000.00000000          -3048           -477            947           4684
   5004.00000000          -2828            323           2027           1422
   5008.00000000          -2963          -4966          -3236          -1993
   5012.00000000            786           7818           5553           2004
   5016.00000000            789           3718           2839           -599
   5020.00000000           1939          -1108           2392          -3773
   5024.00000000          -6057           4169           6298          -3692
   5028.00000000          -2222          -4887          -1333            549
   5032.00000000           2365           -613          -2288             46
   5036.00000000           2240           1925          -1733            116
   5040.00000000           -372           5090            240           -957
   5044.00000000           -955          -1951          -4115          -1282
   5048.00000000           1583           2502            518          -1932
   5052.00000000          -1684          -2667            458           2502
   5056.00000000          -1623           2512           4447          -2799
   5060.00000000           4223          -4670          -5808            256
   5064.00000000             96           2372            806           2648
   5068.00000000           3363           3354          -6019           1712
   5072.00000000           4882           -715           2347           3599
   5076.00000000          -5141          -4510          -3966          -1016
   5080.00000000            541           2379           1846          -4457
   5084.00000000            -49            657           4027           -158
   5088.00000000           2228           -376          -2122           3934
   5092.00000000           1900           2889           -355            628
   5096.00000000          -2542            776            647           -707
   5100.00000000          -1253           -829          -2763           1773
   5104.00000000           2088          -2745            816            917
   5108.00000000           2543           4408           2791          -4377
   5112.00000000            716           1074           4657           2471
   5116.00000000          -2617            552          -1630            -47
   5120.00000000          -2735           1101              1           -956
   5124.00000000           1252           2552          -1366           1185
   5128.00000000          -1499            343          -1603           1647
   5132.00000000           1924           4090           2361           -172
   5136.00000000           -958           1748           3362           -926
   5140.00000000          -2953           4145          -5400           1373
   5144.00000000           -654            -42           3966          -1139
   5148.00000000            299           1873           -943           1390
   5152.00000000           -478             -8           -896           -600
   5156.00000000           -620          -1664          -2851          -1110
   5160.00000000            612           5370           -504          -4526
   5164.00000000           3227          -3763           2387           5600
   5168.00000000           1474          -1808           4499           2124
   5172.00000000          -1134           -142            322          -2527
   5176.00000000           7726           -176          -5048           3491
   5180.00000000           -122            120           3833           2396
   5184.00000000            384          -1212          -5675           2653
   5188.00000000          -2329           2666           2176            638
   5192.00000000            -14          -3526           3635           3247
   5196.00000000          -1746          -2398          -3167           3707
   5200.00000000           4092           1171           1515          -5853
   5204.00000000            -29          -4035            512           1891
   5208.00000000           1943          -2670            348            407
   5212.00000000           1032           2494           2505          -2893
   5216.00000000          -1535           1996            169           6026
   5220.00000000          -3162             -7            446            360
   5224.00000000            671          -4266          -1150           -301
   5228.00000000            750           -514           1384           1689
   5232.00000000           1243          -4836           3565          -2244
   5236.00000000          -3763          -1861           1129            983
   5240.00000000          -2477           3494           -221          -7182
   5244.00000000           1706          -4151           -689           2557
   5248.00000000           1341          -3879            180          -3226
   5252.00000000           -672           5274          -4520           -273
   5256.00000000           2517            768           2940            810
   5260.00000000          -2784          -1262              1          -1811
   5264.00000000          -2637          -1142          -1675           -296
   5268.00000000           2395           -416          -1240          -1741
   5272.00000000          -2195           2550           2676          -4773
   5276.00000000           4557            344           -699           5040
   5280.00000000           1392          -1518          -4469           2152
   5284.00000000          -3377           -976          -1727            505
   5288.00000000            395            876           1701             74
   5292.00000000          -1720           1496           -944          -2326
   5296.00000000          -1960           1745          -2860          -3996
   5300.00000000          -2223           4198           2424          -3591
   5304.00000000          -3746           2056          -1960           3642
   5308.00000000          -2063           3531          -2440           1381
   5312.00000000            924           1582           -325          -1324
   5316.00000000            456           1509           1814            157
   5320.00000000           -418           1133           1394           4643
   5324.00000000          -1326           3586            887            850
   5328.00000000           1390            254           1873          -2583
   5332.00000000           -267           5001           3785            597
   5336.00000000          -2633           5340          -1625            894
   5340.00000000           2172             97           -103          -2332
   5344.00000000           2569           1197           2180          -3731
   5348.00000000           2616           -737           3723            250
   5352.00000000          -1433          -2869           -181            962
   5356.00000000           -625            125          -1043           -867
   5360.00000000           2755           1546            362            265
   5364.00000000           1288           -147            646           1118
   5368.00000000           2314           2208           1469          -1439
   5372.00000000           1347            765           -475          -2074
   5376.00000000           2849             43           1851          -2422
   5380.00000000          -1882           2744          -1361           1457
   5384.00000000           -858          -1497            412           1237
   5388.00000000            840            368           2543            239
   5392.00000000            692           1131           1180            340
   5396.00000000           1969           2705           -866           -749
   5400.00000000           -924            432          -3364           1121
   5404.00000000           3957           3862          -1641           1083
   5408.00000000           3032            202          -2226           1294
   5412.00000000           1898           -533           -165          -3266
   5416.00000000           -539          -1827          -1705           1699
   5420.00000000           1948           3045           -638           2151
   5424.00000000          -1829           1519            136          -1560
   5428.00000000           -578           -956            -97           1321
   5432.00000000           3484            265           -701           1170
   5436.00000000            831           2787           -547          -1060
   5440.00000000          -1676           3041          -2039            999
   5444.00000000           1513           1938           -441           -192
   5448.00000000           -145          -2642           -230           -971
   5452.00000000           2157           1373          -1234           1854
   5456.00000000            194            937          -2963           1445
   5460.00000000             18           2031          -2404           4865
   5464.00000000           3654          -1524           1472           1959
   5468.00000000           1957            -13           -675           2007
   5472.00000000           3286           -331            839            435
   5476.00000000          -1187           1980          -2136           1646
   5480.00000000           1301           1607            328           1050
   5484.00000000          -2356            288           1337            488
   5488.00000000            571           2975           2005            283
   5492.00000000           1645            795           1458           1492
   5496.00000000            866           1358           -968           3666
   5500.00000000            175            364           1328           2118
   5504.00000000           1879           2681           2785            623
   5508.00000000            300           -247            684           -769
   5512.00000000           1040            551             68            718
   5516.00000000           -898           -789            541          -1184
   5520.00000000           3025          -4901           -760          -2821
   5524.00000000           1695           -695           1616           2480
   5528.00000000          -3932            225          -2137           -360
   5532.00000000           1818           2178           1566           3143
   5536.00000000          -1778           -302            626          -1192
   5540.00000000           1589            616           1940          -1212
   5544.00000000           1696          -1272          -1363           -671
   5548.00000000           1430           2039            571           3751
   5552.00000000            492           -633           2881           2177
   5556.00000000            -14           1098           -930           1190
   5560.00000000          -2802            175           1209            345
   5564.00000000           1516           2072          -1100           4447
   5568.00000000          -1519           2201            516           -626
   5572.00000000            309           -550           -120          -1924
   5576.00000000           2419            511           -586           1142
   5580.00000000           1301           2332          -1300          -2723
   5584.00000000          -1518            780            430           1760
   5588.00000000          -2671           3100           -659           -789
   5592.00000000            549           1101            146            878
   5596.00000000            557           -604           1075          -2481
   5600.00000000            639          -1945           2689          -1646
   5604.00000000          -1278            699           1413          -1531
   5608.00000000           1681           1179          -1000          -1807
   5612.00000000             67            971          -1898           -853
   5616.00000000           1316           1699            804           1651
   5620.00000000             55           -473            516            340
   5624.00000000           -131            526          -2060           -255
   5628.00000000            615            916            617             89
   5632.00000000          -1168           -895            812            655
   5636.00000000           1930            911           -330           -780
   5640.00000000            413           1191            536           -857
   5644.00000000           -276            557           1366            982
   5648.00000000           -990          -2581          -1098            745
   5652.00000000           -801          -1701           -803           -381
   5656.00000000           1144           1135          -1312           -468
   5660.00000000            888           -928           -351           1256
   5664.00000000           2434           -165            144           -763
   5668.00000000           -264           -864          -2371           -133
   5672.00000000           2010           2728           -484          -1850
   5676.00000000           1763            771           1221            906
   5680.00000000            266           1966            902            808
   5684.00000000           1361            717            985             39
   5688.00000000           -514           -391           1252            185
   5692.00000000           1015            134           -890            858
   5696.00000000           -741           -192          -1232           1636
   5700.00000000           -785            232           -544          -1273
   5704.00000000           -580           1387          -1103           -593
   5708.00000000            315            659           1678           -609
   5712.00000000           -479           1778          -1879          -1440
   5716.00000000          -1372          -1486             55           -300
   5720.00000000          -1837          -1436            105           -921
   5724.00000000           2700          -1737           -864           -229
   5728.00000000           1461           2086           -650           -334
   5732.00000000           1261           -262           1522           -200
   5736.00000000           -467          -1936            365             18
   5740.00000000            461            683            565            533
   5744.00000000           -744           -798           -159           2664
   5748.00000000            170           2817           -375             24
   5752.00000000          -2852           2053           -609            465
   5756.00000000          -1053            602           1877            962
   5760.00000000            386            149           2237            951
   5764.00000000          -1278          -1038           2242           1543
   5768.00000000           -594           -921            544            399
   5772.00000000           1803            616           1329           1450
   5776.00000000            811            485           2148            312
   5780.00000000           1436           -428           -728            949
   5784.00000000          -1520          -1269           1390          -1891
   5788.00000000           -654           -662          -1621           -248
   5792.00000000            636           1102          -1749           -931
   5796.00000000            -34            671          -1139           1336
   5800.00000000           -608           1290            510           -839
   5804.00000000            716           -658           -210           1008
   5808.00000000           -469          -1694            719           1083
   5812.00000000            299           -469           -389          -1675
   5816.00000000            -78           -495           -280           -466
   5820.00000000           2524           -234          -1563           -586
   5824.00000000           2268          -1103          -1454            253
   5828.00000000           2621          -1442          -1035            -73
   5832.00000000           -705           1273           3691           -822
   5836.00000000          -2295            296           -685          -1815
   5840.00000000          -1671           -217          -1136           1708
   5844.00000000            -13            518          -2545          -1559
   5848.00000000           -171           1425            923           -217
   5852.00000000          -1233          -1342           1615            -14
   5856.00000000          -2661           -787           2625            -71
   5860.00000000          -1554            963            788           -508
   5864.00000000           -501          -1085           1951            -77
   5868.00000000          -1012          -1624            244            122
   5872.00000000          -1504            360           -424           -238
   5876.00000000           1191            163            226            705
   5880.00000000           -658            998            522          -1858
   5884.00000000           1030          -1253             53            653
   5888.00000000           -589            980           2828            159
   5892.00000000            270           -194           -409            -60
   5896.00000000           -340           1370            617           -920
   5900.00000000            112           1497            388           -336
   5904.00000000            328           1031            688           -774
   5908.00000000            913            607              6            454
   5912.00000000            680           -828          -1333           -875
   5916.00000000            744            566           -551           1028
   5920.00000000            580           -125           -579           -466
   5924.00000000           -242           -323           1798           2420
   5928.00000000           -608           -690           1342           -177
   5932.00000000            139            321            802             27
   5936.00000000            330           1121           1553             70
   5940.00000000            515           -472           1408             21
   5944.00000000           -949           2395           1065           -172
   5948.00000000            347           -181            433           1061
   5952.00000000            944           -541           1353           -723
   5956.00000000           -343           -419            202           -170
   5960.00000000           -436           -725           1307            492
   5964.00000000          -1771          -1181            944           -637
   5968.00000000            139           1064           -966            573
   5972.00000000            910            948           -334            640
   5976.00000000            418            361            161            103
   5980.00000000           1140           1573            -45          -1508
   5984.00000000            175             71            241           -365
   5988.00000000           -516            -92           -657            862
   5992.00000000            741           -711             84            -96
   5996.00000000            746           -968          -1173            -22
   6000.00000000            643            961           1238            569
   6004.00000000            627            219            636            715
   6008.00000000            731           1712            405           1158
   6012.00000000           -284           -688            556           1714
   6016.00000000           2133            523           -264           -911
   6020.00000000            696           -610           1253            948
   6024.00000000           1302           1590           -873           -654
   6028.00000000            345           -412          -1004           -430
   6032.00000000            624            121           -286            439
   6036.00000000           -141           1109            431            517
   6040.00000000           -830            -59            150          -1671
   6044.00000000           -237           -588            714           -983
   6048.00000000            724            858           -753           -274
   6052.00000000            -86            546            180            258
   6056.00000000            879           1756            413           2886
   6060.00000000            622          -1048           1220            838
   6064.00000000            448            612            555            722
   6068.00000000            -86           -296            601          -1179
   6072.00000000            235           -532           -156            978
   6076.00000000            -85            945            894             17
   6080.00000000          -1069           1113            -12           -357
   6084.00000000            431            -53           -473            227
   6088.00000000           -229            496            266             45
   6092.00000000            124            -84            244           -176
   6096.00000000            267          -1088            993           -353
   6100.00000000           -318           -682            117            745
   6104.00000000           -374            578           -670           -645
   6108.00000000           -366           1414           -731            670
   6112.00000000           -794           -904            710            397
   6116.00000000            414           -605             70           1387
   6120.00000000           -558            215            606            434
   6124.00000000           -299           -604            503            429
   6128.00000000            943            541            -61           1380
   6132.00000000            -98           -178            411           -755
   6136.00000000           -427           1141          -1093            787
   6140.00000000          -1047            619            720            682
   6144.00000000           1420            781            471           -790
   6148.00000000              6            631           -231             87
   6152.00000000            163           -399             74           -118
   6156.00000000            298            343            467          -1170
   6160.00000000           -114            578           -130           -508
   6164.00000000           -973            -40            776           1289
   6168.00000000          -1301            672           -483            583
   6172.00000000             19           1148            129            559
   6176.00000000           -135           -234           1390           -117
   6180.00000000           -640            124             83             19
   6184.00000000           1304            232           -564            718
   6188.00000000           1650           -725           1570            278
   6192.00000000            521            307             51           -440
   6196.00000000            383            125           -962            614
   6200.00000000           -578            -48          -1106            725
   6204.00000000            938            177           -446          -1433
   6208.00000000           -984             70           -331            203
   6212.00000000            730           -949             33           -159
   6216.00000000            194             87            -93           -265
   6220.00000000            930            742            -61             97
   6224.00000000            312             98           1569            627
   6228.00000000            486            834           1271            -91
   6232.00000000            192          -1043          -1056          -1308
   6236.00000000           -457            818          -1251           -183
   6240.00000000            523            -63            383           -264
   6244.00000000            365           1122            421             71
   6248.00000000           -174           -254            -42           1350
   6252.00000000           -205            195            420           -758
   6256.00000000           1095            490           -641            842
   6260.00000000           -463            283            948            451
   6264.00000000            614            669            843            648
   6268.00000000            322           -326             72           -354
   6272.00000000           -185            187           1057           1022
   6276.00000000            157           1347            191            559
   6280.00000000           -616            -49            492            253
   6284.00000000           -689            386              1           -943
   6288.00000000            799             52           -796           -689
   6292.00000000          -1177          -1365           1547          -1158
   6296.00000000            789            -25           -615           1539
   6300.00000000           -809            -88            618            527
   6304.00000000            -64           -449           -670            -63
   6308.00000000           -215           -272             57           1147
   6312.00000000            185            750            491              9
   6316.00000000            495            607            226           -595
   6320.00000000           -160          -1063           -329            492
   6324.00000000           -278           -827              4           -305
   6328.00000000            343            423             74           -112
   6332.00000000           -647           -129            317            326
   6336.00000000            789           -347           -115           -353
   6340.00000000            277            699            -76            137
   6344.00000000            760           -457           -363           1179
   6348.00000000            -78            861            247             97
   6352.00000000           -806            560           -284           -232
   6356.00000000           -300           -291             69            106
   6360.00000000            311           -885           -914          -1649
   6364.00000000           1021            446            372           -954
   6368.00000000             25           1012           -963            452
   6372.00000000          -1139            478            689           -477
   6376.00000000            163           -120           -180             75
   6380.00000000           -484             11           -434           -231
   6384.00000000            164             54            242           -478
   6388.00000000             75           1129           1050            164
   6392.00000000            541           -445            171             33
   6396.00000000            847             13           -448            442
   6400.00000000            918           -163            717            806
   6404.00000000            -74           -133           -567            292
   6408.00000000            147           -448           -281            -42
   6412.00000000           -777           -564            383           -191
   6416.00000000            411           -278            211             47
   6420.00000000           -316            604          -1065             86
   6424.00000000           -318              5            459           -617
   6428.00000000            298           -170            153            382
   6432.00000000            465           -138            613           -470
   6436.00000000            497           -605           -192           -568
   6440.00000000           -989            348           -143            166
   6444.00000000            -11            764            726            812
   6448.00000000           -380           -304            219           -170
   6452.00000000           -246           -357           -149           -753
   6456.00000000           -337           -113            100              3
   6460.00000000             86            850            -65            526
   6464.00000000            -18           -197            233            262
   6468.00000000            375           -105            474            251
   6472.00000000           -497            693             14           -335
   6476.00000000            552            417           -253            -24
   6480.00000000           -149           -155           -525            534
   6484.00000000            334           -335            787           -655
   6488.00000000           -490            464            934            848
   6492.00000000            359           -214            191           -553
   6496.00000000            194           -382           -365           -209
   6500.00000000            448           -250           -443           -292
   6504.00000000            679            -70            255           -230
   6508.00000000           -149            115            251           -256
   6512.00000000           -120           -433           -528           -189
   6516.00000000           -166            657            122           -119
   6520.00000000            800            192            492           -829
   6524.00000000            382            338            -91           -132
   6528.00000000            625            898           -133            588
   6532.00000000            522            461            -80            919
   6536.00000000           1104             87           -754           -336
   6540.00000000           -411           -442            765            232
   6544.00000000            333           -104           -329           -197
   6548.00000000            157            491             26            447
   6552.00000000            183           -421           -386           -509
   6556.00000000             98           -300           1069            644
   6560.00000000            -76           -306           -214            269
   6564.00000000            269           -117            801             59
   6568.00000000            304            393           -280            293
   6572.00000000             46            424            -27            737
   6576.00000000            510           -322            775             -4
   6580.00000000           -240             33            453            429
   6584.00000000             79           -672            607            191
   6588.00000000           -224           -208            206            190
   6592.00000000           -296            493            -90            463
   6596.00000000            829           -405           -304            340
   6600.00000000            505            153            463             53
   6604.00000000           -107           -216            388           -157
   6608.00000000           -248            196          -1000             34
   6612.00000000            749           -211            410           -255
   6616.00000000            228            562           -488            231
   6620.00000000           -236            -15            175            311
   6624.00000000            481           -622            298           -238
   6628.00000000           -327           -555            109            907
   6632.00000000            459           -280           -363            277
   6636.00000000           -157            -75            106            152
   6640.00000000             42            202            124            478
   6644.00000000            568            395            194           -244
   6648.00000000           -167           -255            165            -87
   6652.00000000             -9            304            303            312
   6656.00000000           -251            647           -371            467
   6660.00000000           -162           -467            940             87
   6664.00000000           -199           -505            720            217
   6668.00000000           -166           -299            856            591
   6672.00000000           -629            187           -248           -176
   6676.00000000           -145             84           -143            301
   6680.00000000             98           -179           -247           -204
   6684.00000000            -59            -51            109           -286
   6688.00000000           -189           -410            465            -15
   6692.00000000            381            -82           -188           -114
   6696.00000000           -393           -265           -438           -429
   6700.00000000            881            687            -23            284
   6704.00000000           -882            -28            303            -74
   6708.00000000            -39            262            794             37
   6712.00000000             92              3            271            -94
   6716.00000000            314           -451             73           -559
   6720.00000000            -88            730            225            196
   6724.00000000           -322           -137           -220           -124
   6728.00000000            -18           -402             56            238
   6732.00000000            -78            345             46           -194
   6736.00000000            461            -81            417             92
   6740.00000000            397            -83           -586            180
   6744.00000000           -628             93            -58            150
   6748.00000000            -88            657            183            422
   6752.00000000             15             22            241            -85
   6756.00000000           -105           -241            393            -99
   6760.00000000            -35             75             26            646
   6764.00000000            218             96            156           -164
   6768.00000000             57            423            582            595
   6772.00000000            142            -56            212            -68
   6776.00000000           -673            173            309            143
   6780.00000000           -291            -19             96           -458
   6784.00000000            215             85           -314           -445
   6788.00000000            199            -39            111            326
   6792.00000000            492            116           -200             11
   6796.00000000           -218            280             91            -87
   6800.00000000           -305            146            292           -460
   6804.00000000            -95           -199             62            -22
   6808.00000000           -172            193            -51           -444
   6812.00000000            -18            380            101           -302
   6816.00000000           -125            568            676           -216
   6820.00000000            145             89            446           -255
   6824.00000000            245            491           -162            197
   6828.00000000           -192            242            110            369
   6832.00000000            -84           -444            -23            399
   6836.00000000           -243           -208           -254            146
   6840.00000000           -131            596            540             24
   6844.00000000           -118           -429            114            -14
   6848.00000000            101           -267            102            241
   6852.00000000             65           -129           -227            546
   6856.00000000            428           -137             14            -49
   6860.00000000            -70           -396            541            -42
   6864.00000000            405           -110           -112            111
   6868.00000000           -484            130            -41            280
   6872.00000000             36            206           -313           -172
   6876.00000000           -173            -20           -140            437
   6880.00000000            119            272           -323            201
   6884.00000000            269            108           -128            476
   6888.00000000            -93           -239             65            450
   6892.00000000            254             72            230            575
   6896.00000000            -30            219            210           -115
   6900.00000000            445            423           -243            -96
   6904.00000000             -1            281            611           -405
   6908.00000000             86              9            203              3
   6912.00000000           -231           -165           -206            163
   6916.00000000           -167            254            215            460
   6920.00000000            -49             82           -444            249
   6924.00000000             90           -186            -24            395
   6928.00000000            496             93           -641           -205
   6932.00000000            290            651            -97            432
   6936.00000000           -324             41            628           -549
   6940.00000000            -17            124             88            129
   6944.00000000             -7           -396           -220           -329
   6948.00000000           -315           -254             89             87
   6952.00000000            132             61           -139            461
   6956.00000000            386            501            112           -237
   6960.00000000            -55            126           -495            174
   6964.00000000            102           -368            139            411
   6968.00000000            175             14           -159            205
   6972.00000000             97            351            175            -13
   6976.00000000            255           -207            -58            348
   6980.00000000           -321            163           -380            238
   6984.00000000            121             21            191           -349
   6988.00000000             65             64           -305            166
   6992.00000000            109            -47           -237            205
   6996.00000000           -153           -173             41            100
   7000.00000000             73            104           -142            386
   7004.00000000            102            347           -104           -133
   7008.00000000             10            388           -380            525
   7012.00000000            132            128             59           -175
   7016.00000000             28            -78             12            -54
   7020.00000000            297            143             73            330
   7024.00000000            -87            -35           -199           -202
   7028.00000000           -323            295              7            235
   7032.00000000           -219           -229            344             56
   7036.00000000             86             70           -257            398
   7040.00000000            219           -295           -336            -67
   7044.00000000             63            302           -255            -59
   7048.00000000            178             34            198            -52
   7052.00000000           -106            198             67            259
   7056.00000000            258            -73            202            131
   7060.00000000            -66            167           -276           -288
   7064.00000000            -22            137            397            114
   7068.00000000            240             51             61           -320
   7072.00000000            136           -190           -100            205
   7076.00000000            269           -584            231            -64
   7080.00000000           -173             10            264            171
   7084.00000000           -462           -177             97           -157
   7088.00000000            189             20            161            344
   7092.00000000            211            -68            -59            -13
   7096.00000000             79            -77            360             84
   7100.00000000             76           -200           -162           -297
   7104.00000000           -309            200            -52           -221
   7108.00000000           -281            219             20           -260
   7112.00000000           -108            107             87           -470
   7116.00000000           -287             99            114           -286
   7120.00000000            -30            -79            139            125
   7124.00000000            -30            258            116           -185
   7128.00000000            413           -185            133              2
   7132.00000000            -95            267            153           -172
   7136.00000000            -86            -67            291           -152
   7140.00000000           -253           -114             28             30
   7144.00000000            -34            347            289           -615
   7148.00000000            133            307           -190            122
   7152.00000000           -256            396            172            305
   7156.00000000            -11             87             73             32
   7160.00000000           -131            105             63             24
   7164.00000000            -76            134             82            108
   7168.00000000            -81            195           -311           -202
   7172.00000000             48            245            -55           -104
   7176.00000000           -152           -180            368             26
   7180.00000000           -162             32           -300            -57
   7184.00000000           -125              8            307              2
   7188.00000000             16            123            216            294
   7192.00000000             93            251            112           -121
   7196.00000000            171            160           -102            105
   7200.00000000           -178           -327           -340            523
   7204.00000000           -259             -5            133            -53
   7208.00000000            -58            -26           -175           -245
   7212.00000000           -114            127            365            158
   7216.00000000             34             23           -196              1
   7220.00000000             35           -233            121            -75
   7224.00000000            -53           -127            218              2
   7228.00000000           -250             62           -188            165
   7232.00000000             60            208            312             63
   7236.00000000             21            223             -2            122
   7240.00000000             65            114            193              2
   7244.00000000            -96            164           -270            145
   7248.00000000           -104            183           -122           -134
   7252.00000000             18           -250            133           -269
   7256.00000000           -177            -71             32             63
   7260.00000000            -11            254             26             48
   7264.00000000            106             64             -5            102
   7268.00000000             27           -125           -228            -54
   7272.00000000            -44             13           -148            -84
   7276.00000000            172           -265            133              2
   7280.00000000            -70             67            -34           -263
   7284.00000000            171             47            116            -98
   7288.00000000            -20            203            295           -187
   7292.00000000            -51            267           -155           -222
   7296.00000000           -186           -145            102            275
   7300.00000000           -156           -199            -44             -6
   7304.00000000            241            -95            239             46
   7308.00000000             34            -13            226            303
   7312.00000000           -130           -190           -119             82
   7316.00000000             34             11            166            164
   7320.00000000             77            301           -151           -141
   7324.00000000           -228           -190            -13            -91
   7328.00000000           -306           -116            104             67
   7332.00000000           -109            150            -35            -83
   7336.00000000           -226            -73            203           -196
   7340.00000000            -83            -96           -135           -163
   7344.00000000            120             -4            287            287
   7348.00000000             64            249            -43           -183
   7352.00000000            -84            197            154            205
   7356.00000000            -92              6            -90           -134
   7360.00000000            -76             27           -159            101
   7364.00000000             39            160            215            164
   7368.00000000             55           -121             28           -199
   7372.00000000             93             78           -125            -71
   7376.00000000           -353            -87             50            -17
   7380.00000000           -143           -141            -24            122
   7384.00000000           -155            158             19            347
   7388.00000000             68            291            -24           -101
   7392.00000000             -4            302            130             31
   7396.00000000             67             80             17             13
   7400.00000000            122              9           -121             36
   7404.00000000            207             70           -244              6
   7408.00000000             41           -188            192             41
   7412.00000000            -94            175             49           -231
   7416.00000000            142           -164            -46            -32
   7420.00000000              2            -52           -199           -134
   7424.00000000            109             98            199             14
   7428.00000000            221             74            146           -170
   7432.00000000           -192            -94            -43             72
   7436.00000000            193             34            288            -28
   7440.00000000            -15            100              1            -57
   7444.00000000             55             87           -171           -150
   7448.00000000             60             16              5            275
   7452.00000000            -71           -223            160            -59
   7456.00000000            -39           -158           -195            -17
   7460.00000000            -37             13             -9           -132
   7464.00000000           -127             11             41             41
   7468.00000000           -133           -104             75             16
   7472.00000000           -178             58             -9             80
   7476.00000000           -185             87             43             -5
   7480.00000000            -56            344            -17            -29
   7484.00000000            -39            117           -283            119
   7488.00000000            -86            135            -10           -212
   7492.00000000            -30             94             70             83
   7496.00000000            -72             -5            259           -249
   7500.00000000             98           -182             38            105
   7504.00000000             38             -4            209            194
   7508.00000000             76             39           -241            126
   7512.00000000            -44            -77            167            145
   7516.00000000             79           -104            -69           -122
   7520.00000000             14            -94              4           -102
   7524.00000000             47            -47             19             50
   7528.00000000             84             75             77             10
   7532.00000000            -81            167             51           -330
   7536.00000000            257            224            102            -51
   7540.00000000             90             18            166             82
   7544.00000000             -4             85            -24            -95
   7548.00000000           -117             34            -87           -143
   7552.00000000             57            -34             17             68
   7556.00000000             13            100             39              4
   7560.00000000             27            211            327            227
   7564.00000000             89            -92           -159            280
   7568.00000000             85             80           -192            171
   7572.00000000            -92            -48             40            207
   7576.00000000            -51            -61             60             67
   7580.00000000            -26            148            -14           -147
   7584.00000000            -17             33            121             92
   7588.00000000            -18            125            -21            -32
   7592.00000000           -103             73             72            145
   7596.00000000             63              5            -53              3
   7600.00000000            -64            -77             52            -22
   7604.00000000            -86           -228             30           -145
   7608.00000000           -123             84            113           -140
   7612.00000000           -147            -23              8             63
   7616.00000000             95            106            -43            159
   7620.00000000            -16            119            -83            -91
   7624.00000000            -57              5            -14             34
   7628.00000000            -59             48             -6             37
   7632.00000000             91            153             62            167
   7636.00000000            -39            -45             80            -49
   7640.00000000            221            -56            133             -2
   7644.00000000             25             -2             -3             39
   7648.00000000              3            -86             39             55
   7652.00000000             72            153             65            -39
   7656.00000000             20            -52            -80            122
   7660.00000000            177            -57            -94            -93
   7664.00000000             41            -28             76           -193
   7668.00000000           -172           -220            109             44
   7672.00000000            -16            -51             85             42
   7676.00000000            -11             23            -51            195
   7680.00000000            -39             59            -47              0
   7684.00000000            -91            153             30             35
   7688.00000000            -31            -22           -175             62
   7692.00000000            -74              5            -38              2
   7696.00000000            136             62           -171             42
   7700.00000000             39           -121            -85           -133
   7704.00000000            108            222           -135              2
   7708.00000000            262            147            -20            129
   7712.00000000             74            199            -31             41
   7716.00000000            -42            128           -155             34
   7720.00000000             90             88             -5           -124
   7724.00000000            -70            -74             28             98
   7728.00000000             30            137             34             16
   7732.00000000           -148            107             -6            -41
   7736.00000000            108             -6           -138             -8
   7740.00000000            198            -43            147            -54
   7744.00000000             -6             92             64             -7
   7748.00000000             69             99             43            -60
   7752.00000000            -71             22            115            -33
   7756.00000000            112             -1             14            121
   7760.00000000            -49             36           -108             14
   7764.00000000            -81            -64             28            114
   7768.00000000            162           -186             26             53
   7772.00000000             21            -44            -91             52
   7776.00000000             10           -156             20           -144
   7780.00000000           -130            -24            177           -138
   7784.00000000            107           -109            -53             55
   7788.00000000           -129             88             95            179
   7792.00000000             77             -3             93            114
   7796.00000000            -86             -2             52             59
   7800.00000000             52             51            108           -101
   7804.00000000             42            -21             27           -120
   7808.00000000           -164             11            -64           -101
   7812.00000000             -4            -52            -77             73
   7816.00000000             52             66            -84            -50
   7820.00000000             71             13             36           -142
   7824.00000000             29             16             10             65
   7828.00000000            102            183              9             17
   7832.00000000             59           -119              3             30
   7836.00000000            -97             53            -24            -79
   7840.00000000             29            -77            -59             87
   7844.00000000             31             65             -3             46
   7848.00000000            -14            -33            -29             68
   7852.00000000            113             12           -115             -6
   7856.00000000              6            -69             48            -17
   7860.00000000            107              3           -132            -63
   7864.00000000             91             31             24           -135
   7868.00000000             29             28           -102            -24
   7872.00000000             -4             85             31            145
   7876.00000000             67            -50            -15             44
   7880.00000000            -26              6            -32            175
   7884.00000000            -61            -85             -2             15
   7888.00000000            -24            115            -64            -67
   7892.00000000             70              8             95             75
   7896.00000000            -21            -42             48             -6
   7900.00000000             90             40             13             11
   7904.00000000             85            -11             93             20
   7908.00000000            -41             20             -3           -170
   7912.00000000            -43            -10            -28             34
   7916.00000000             56              7             -4            104
   7920.00000000            -50             95            -14            -76
   7924.00000000             59            -56           -101             52
   7928.00000000            -68            -52              8            -54
   7932.00000000            -33            -59            -43             83
   7936.00000000            173             61            -65             68
   7940.00000000            -66            -33            -49             69
   7944.00000000            -36             29             -5            -51
   7948.00000000            150             49           -112             -7
   7952.00000000           -100           -133            -69              1
   7956.00000000            -55             22             20             22
   7960.00000000           -127             84             -4           -119
   7964.00000000             -4             68             21             73
   7968.00000000              7            -63              3             -5
   7972.00000000           -126            -61            -17           -135
   7976.00000000              4           -109            -52            -21
   7980.00000000             36             74             83             34
   7984.00000000            -39             36             45             33
   7988.00000000            -42             43             11            -22
   7992.00000000            -50           -150            -37            -66
   7996.00000000             44             51             11             -0
   8000.00000000            -75            -73             26             91
   8004.00000000            -24             34             84           -166
   8008.00000000             93            -66            -57            -12
   8012.00000000            -33             12             -4             35
   8016.00000000             -4            -96             30             72
   8020.00000000            110            -53            -39              2
   8024.00000000            -44             21            114             19
   8028.00000000             38            -17            -33           -120
   8032.00000000            -46            -25            -14             -4
   8036.00000000            -35            -39            -43             -9
   8040.00000000             86             14            -88              1
   8044.00000000            -74            -27             16            103
   8048.00000000            -49             81             -6            -96
   8052.00000000            -37              6            -86             42
   8056.00000000             45            -20              0              1
   8060.00000000             84             80            -45             43
   8064.00000000             18             89             80             17
   8068.00000000            -10            -67             32             -1
   8072.00000000             16             25            -18             48
   8076.00000000              4             49           -109             61
   8080.00000000              4            -36            -72            -69
   8084.00000000             -6             60             64            -28
   8088.00000000             16             19             15              9
   8092.00000000             -1            -83             12             54
   8096.00000000            116              4            -17             -9
   8100.00000000            -80            -14             83            -33
   8104.00000000              4            -75             70            -31
   8108.00000000             -0            -20             24            -34
   8112.00000000            137             94             30             11
   8116.00000000           -107             -8            -36            -99
   8120.00000000            -64              3             -2            -38
   8124.00000000             18              7             48              3
   8128.00000000             63              9             39             60
   8132.00000000            -20             19            -86             29
   8136.00000000            -75             98             48             31
   8140.00000000             -8             67            -52            -21
   8144.00000000             42             21            -84             18
   8148.00000000            -44            102             32            -57
   8152.00000000            -91             64           -129            -48
   8156.00000000              3             65             71             71
   8160.00000000             68             84            -14            -97
   8164.00000000            -47            -58            -25            -37
   8168.00000000              8            -50            -68              8
   8172.00000000            -52             38            -20             61
   8176.00000000             60             26            -18            -13
   8180.00000000             21            -52            -34             60
   8184.00000000             -1            -36            -99            -12
   8188.00000000             56             39             81             34
##END NTUPLES=NMR FID
##END=
