##TITLE=CEC-PhSi2-flow(sequence-1000)-06-09-26
##JCAMP-DX=5.01 $$ Nanalysis NMReady v2.2.5.1
##DATA TYPE=NMR FID
##DATA CLASS=NTUPLES
##ORIGIN=Nanalysis Corp.
##OWNER=Nanalysis
##LONG DATE=2026/06/09 10:07:43-0400
##SPECTROMETER/DATA SYSTEM=NMReady 60/nanalysis-X542
##INSTRUMENTAL PARAMETERS=^1H
##TEMPERATURE=33.000252
##PRESSURE=1.000000  $$ Bar
##RESOLUTION=0.00001999999949
##SAMPLE DESCRIPTION=None
##.OBSERVE FREQUENCY=60.55081292186736
##.OBSERVE NUCLEUS=^1H
##.SOLVENT NAME=Toluene
##.ACQUISITION MODE=SIMULTANEOUS
##.SHIFT REFERENCE=INTERNAL, Toluene, 4096, 5.00000000000000
##.SOLVENT REFERENCE=5.00000000000000
##.PULSE SEQUENCE=1D
##.DELAY=(0.000000,0.000000)
##.FIELD=1.422199  $$ Tesla
##.OBSERVE 90=15.789399
##.ACQUISITION TIME=6.55279983446235
##.ZERO FILL=0
##.AVERAGES=4
##.DIGITISER RES=16
##.SPINNING RATE=0.000000
$$##.PHASE 0=-20.00000000000000
$$##.PHASE 1=79.00000000000000
$$ NMReady specific parameters
##$SCANS=4
##$SCAN DELAY=1.000014
##$TOTAL DURATION=31.338313
##$X_PULSE=14.210050
##$RECVR_GAIN=12
##$SWEEP WIDTH=20.000000
##$RELAXATIONDELAY=1.280964
##$ZEROING=7.000000
##$APODIZATION=0.030000
##$PHASECORRECTION=-20.000000,79.000000
##$PIVOT=0.000000
##$DT=0.000020
##$LOCKOFFSET=2.080000
##$SPECTRALCENTER=5.000000
##$DECIMATION=40
##$LOWESTF2=-322.245951
##$T2NUCLEUS=1H
##$PULSE_AMPLITUDE=17.500000
##$PLOTTYPE=1D
##$INTEGRALS IS MANUAL=False
##$INTEGRALS REFERENCE ENERGY=2442.871432598918
##$EXPERIMENT_SETTING_Apodization=0.03
##$EXPERIMENT_SETTING_Decoupling Mode=Off
##$EXPERIMENT_SETTING_Digital Resolution=0.02 Hz
##$EXPERIMENT_SETTING_Dummy Scans=0
##$EXPERIMENT_SETTING_Dwell Time=0.50 us
##$EXPERIMENT_SETTING_NPoints (Complex)=8192
##$EXPERIMENT_SETTING_Nucleus=1H
##$EXPERIMENT_SETTING_Pulse Angle=80.37, °
##$EXPERIMENT_SETTING_Pulse Width=14.21 us
##$EXPERIMENT_SETTING_Receiver Gain=12.00 dB
##$EXPERIMENT_SETTING_Receiver Gain (dB)=12, Auto
##$EXPERIMENT_SETTING_Scan Delay=1.0 s
##$EXPERIMENT_SETTING_Scans=4
##$EXPERIMENT_SETTING_Solvent=Toluene
##$EXPERIMENT_SETTING_Spectral Center=5.00 ppm
##$EXPERIMENT_SETTING_Spectral Width=20 ppm
##$EXPERIMENT_SETTING_TX Frequency=60.550813 MHz
##$EXPERIMENT_SETTING_Time Per Scan=7.8 sec
##$EXPERIMENT_SETTING_Zero Filling=7
##$RDC_ENABLED=1
##$RDC_TYPE=CONT5PAR
##$RDC_DATA=(0.145553,5.475700,2.437884,0.765625,0.888815)
$$ End of NMReady specific parameters
$$ Bruker specific parameters
$$ --------------------------
##$DATE=1781014063
##$SI= 65536
##$TDeff= 8192
##$SFO1= 60.55081292186736
##$O1= 302.75406460933681
##$SF= 60.55051016780276
##$BF1= 60.55051016780276
##$AQ= 6.55279983446235
##$SWH= 1250.00003157765696
##$SW= 20.64381915385039
##$SR= 0.00000000000000
##$OFFSET= 15.32198618676595
##$FIDRES= 0.15258789447969
##$O1P= 5.00000000000000
##$TD= 16384
##$DW= 399.99998989515007
##$SPECTYP= PROTON
##$NS= 4
##$DS= 0
##$DR= 16
##$DE=1.000014
##$RG=12
##$P1=14.210050
##$P= (0..2)
0.0 14.210050
##$PHC0= 59.50000000000000
##$PHC1= -79.00000000000000
##$PH_mod= 1
##$WDW= 1
##$LB= 0.02999999932945
$$ End of Bruker specific parameters
$$ ---------------------------------
##NPOINTS=8192
##DELTAX=0.0008000000
##NTUPLES=NMR FID
##VAR_NAME=TIME,FID/REAL,FID/IMAG,PAGE NUMBER
##SYMBOL=X,R,I,N
##VAR_TYPE=INDEPENDENT,DEPENDENT,DEPENDENT,PAGE
##VAR_FORM=AFFN,AFFN,AFFN,AFFN
##VAR_DIM=8192,8192,8192,2
##UNITS=SECONDS,ARBITRARY UNITS,ARBITRARY UNITS,
##FIRST=0.000000,1133.794990,340.437325,1
##LAST=6.552800,-0.000022,0.000008,2
##MIN=0.000000,-1013.932926,-767.173906,1
##MAX=6.552800,1133.794990,872.100455,2
##FACTOR=0.00079999997979030013,0.00000052796459395991,0.00000052796459395991,1
##PAGE=N=1
##DATA TABLE= (X++(R..R)), XYDATA
      0.00000000     2147483000     1385720817     -241494083    -1538414291
      4.00000000    -1920456291    -1321175851     -241916131      718832660
      8.00000000     1157275336     1031134095      520306591      -15160531
     12.00000000     -289278652     -275276122     -226609204     -379053202
     16.00000000     -692710546     -801495384     -398629528      434924030
     20.00000000     1228212844     1474348787      967460446      -61784614
     24.00000000    -1104964153    -1618147306    -1324004290     -368746159
     28.00000000      699025645     1278504704     1110523144      449384462
     32.00000000     -191954505     -450212586     -367473674     -226031394
     36.00000000     -247110209     -398136896     -453695651     -217297212
     40.00000000      299702881      852391745     1080445622      741863979
     44.00000000      -79782023     -953745793    -1359160009    -1029642534
     48.00000000     -162523556      720190246     1122189398      900395510
     52.00000000      289317102     -291522445     -535885621     -417794349
     56.00000000     -150506720        4719702      -64280827     -223578787
     60.00000000     -226141572       66636564      518694360      807071820
     64.00000000      637406444       27706144     -694401596    -1080804265
     68.00000000     -876479208     -190116512      573160282      974547723
     72.00000000      818933379      266483671     -314915829     -586679490
     76.00000000     -465064861     -136269808      107825388      104541643
     80.00000000      -67698691     -165794020      -24560040      310676383
     84.00000000      577422352      520779959       84623653     -502763681
     88.00000000     -874700390     -770225924     -219966936      456600379
     92.00000000      862259224      776232160      279943758     -295188791
     96.00000000     -609852155     -523938097     -182890926      133513139
    100.00000000      216804163       81248477      -80068778      -67056135
    104.00000000      146690305      391319341      418489113      128573037
    108.00000000     -347984975     -703195321     -674370148     -240815752
    112.00000000      358544142      770246368      744068572      314680657
    116.00000000     -250346426     -607694087     -577018389     -242574498
    120.00000000      133245618      298521379      201989125        6740038
    124.00000000      -80334343       30186373      226103930      298326925
    128.00000000      127078047     -225124728     -533637678     -563353523
    132.00000000     -249307033      258195999      660455556      696287455
    136.00000000      334024998     -206284398     -583287387     -585765204
    140.00000000     -266105494      119986774      323503489      268833661
    144.00000000       72508036      -68675076      -52106401       83698305
    148.00000000      186145844      126833166     -113056526     -380672569
    152.00000000     -465698209     -248951621      180268350      552840557
    156.00000000      617404889      316207645     -154987717     -505048403
    160.00000000     -545768868     -285094019       79535003      326842592
    164.00000000      333391468      147851475      -67999849     -137460482
    168.00000000      -39004751      113659677      137462890      -29077332
    172.00000000     -271085028     -379125603     -230403374      113372226
    176.00000000      430468663      512706583      295730519      -92706767
    180.00000000     -424353874     -504610194     -300784051       52741259
    184.00000000      324643718      359372920      173744034      -59344028
    188.00000000     -167280184      -96106371       46792087      110352589
    192.00000000       25142722     -149360206     -265865659     -205520929
    196.00000000       28073527      303859460      430791640      299824639
    200.00000000      -31607077     -359496574     -471141630     -300732399
    204.00000000       29101866      301564413      354396110      193518166
    208.00000000      -35753152     -171913624     -147324333      -19732986
    212.00000000       86889591       70760046      -58138672     -187502375
    216.00000000     -182603884      -15543573      222260942      356016189
    220.00000000      268173665       -5551548     -296424239     -416008109
    224.00000000     -291255278       -7041442      259430456      348029799
    228.00000000      228109965       -1498119     -175631807     -193600973
    232.00000000      -77545654       58741146       96113050       10882870
    236.00000000     -110818545     -142759403      -31834528      154723311
    240.00000000      275879184      227891239       15614687     -234499873
    244.00000000     -360521325     -275854667      -29771386      226944222
    248.00000000      333843796      236970357       16350015     -170669286
    252.00000000     -217855810     -116364320       25649552       98391007
    256.00000000       53678731      -50234359     -103947433      -45199032
    260.00000000       96859458      215399513      195582387       33818686
    264.00000000     -184101404     -306121722     -251404128      -37673941
    268.00000000      194976390      306926470      238713343       38218567
    272.00000000     -156521162     -226872221     -148141309       -1551675
    276.00000000       99733673       86955841       -3933122      -76491087
    280.00000000      -60078599       45806090      153597692      165400429
    284.00000000       47819905     -131541456     -250861000     -219892703
    288.00000000      -51691248      160845390      272764472      225731324
    292.00000000       46201759     -138440264     -216927067     -154409519
    296.00000000      -10949382       97103045      104173879       28236781
    300.00000000      -54844207      -64495502        7980058      100576894
    304.00000000      127532809       50992988      -88877500     -196347210
    308.00000000     -187770184      -50340737      130478180      238309826
    312.00000000      199816342       43741206     -126153260     -202652902
    316.00000000     -150946661      -16487897       97194407      122313290
    320.00000000       55994128      -33461084      -72958181      -31000537
    324.00000000       52806503       96084237       55544033      -55856100
    328.00000000     -151576570     -151803727      -45041924      101706863
    332.00000000      196384841      167417951       38851559     -107691847
    336.00000000     -183225509     -140990343      -18800440       97317645
    340.00000000      131213899       72563308      -23298183      -73512423
    344.00000000      -46262031       27669831       75513266       48122826
    348.00000000      -35953754     -110809376     -117209812      -38933602
    352.00000000       78238796      158685977      143996647       33904771
    356.00000000      -98776944     -168136176     -129541746      -15267941
    360.00000000       93399870      125456238       72131821      -15827366
    364.00000000      -69617681      -55401653        4224607       54798882
    368.00000000       50997388       -8861585      -76527287     -100511124
    372.00000000      -46447361       55376266      130314868      124021971
    376.00000000       35192247      -79476318     -140752140     -112030798
    380.00000000      -19679493       73020012      107449206       70161441
    384.00000000       -5054975      -57930205      -54892580       -7002524
    388.00000000       42840610       45685806        1759948      -57404340
    392.00000000      -79130384      -38026943       40591669      104915024
    396.00000000      102086575       29726320      -60102639     -112833265
    400.00000000      -94910831      -20265330       57711622       91237468
    404.00000000       62675120       -1013860      -50582900      -54022623
    408.00000000      -12798064       30266279       41415719        5520192
    412.00000000      -39675244      -60904333      -31341400       27775868
    416.00000000       77059239       76868657       27679352      -44199735
    420.00000000      -89157756      -77237082      -17694691       47656245
    424.00000000       76426753       54674424        2503588      -41132799
    428.00000000      -45987807      -18213687       18357051       32854445
    432.00000000       14773323      -20607266      -44347896      -29445833
    436.00000000       11822364       53073819       58548133       24921906
    440.00000000      -30274044      -68923378      -64514388      -16674623
    444.00000000       35632228       66129069       52732978        7245214
    448.00000000      -33356152      -46705624      -26544470        9765529
    452.00000000       31104352       23892371       -5441106      -31049733
    456.00000000      -27436009        2179479       36411017       47336100
    460.00000000       24138543      -21335593      -55323898      -57863348
    464.00000000      -20059218       30637457       59375724       50184381
    468.00000000       10239987      -31666184      -48692723      -29944803
    472.00000000        4163578       30719679       27305665        2402397
    476.00000000      -21261100      -27340365       -6961768       21822907
    480.00000000       37039671       24664886      -12376980      -45968224
    484.00000000      -47916904      -18729752       24759177       52542264
    488.00000000       46142282        8908889      -30618336      -47481782
    492.00000000      -33166343         841693       29045373       31915562
    496.00000000        9209361      -15940017      -26880356      -11663433
    500.00000000       17417655       31640106       20074404       -8685692
    504.00000000      -36881104      -41823579      -15561639       22023844
    508.00000000       49316518       43549795        8320868      -29491837
    512.00000000      -46739586      -34256684        2158847       27680767
    516.00000000       31940609       10124267      -13064347      -24603690
    520.00000000      -12422458       12039938       26131574       18215606
    524.00000000       -4512635      -32338223      -36961865      -14459909
    528.00000000       18574311       44053913       39354116        7912119
    532.00000000      -24094036      -40556125      -31307948       -4383454
    536.00000000       22139762       28809560       13998940       -9531145
    540.00000000      -21770292      -15629839        5797526       19321111
    544.00000000       17788847       -1748006      -25001921      -31576660
    548.00000000      -14238753       14756572       38055517       36851865
    552.00000000       13742946      -19145387      -34876158      -29828585
    556.00000000       -3638749       17230832       27112154       16729909
    560.00000000       -4492157      -17109851      -15600083        1334908
    564.00000000       15301154       14763732        -633690      -17611557
    568.00000000      -24956806      -12695521        9624292       29979879
    572.00000000       29328610       11589961      -17170017      -33722587
    576.00000000      -25803034       -6462120       19416084       28464830
    580.00000000       17375915       -1509041      -17183640      -15568852
    584.00000000       -3814164        9764816       12459271        3930633
    588.00000000      -11552119      -19086605      -13354617        6966423
    592.00000000       23743261       27030436        8143691      -15753901
    596.00000000      -27620529      -25416997       -6349146       15311169
    600.00000000       26911976       18424690        2401453      -15993773
    604.00000000      -14972258       -6744646        8980324       13419413
    608.00000000        7293408       -6495452      -17293919      -11613873
    612.00000000        3941314       19824216       22198870       11091992
    616.00000000      -11177370      -26063138      -24282719      -10341472
    620.00000000       10075788       23862995       20844123        4199151
    624.00000000      -11126728      -17514716      -11444418        2543122
    628.00000000       11462363        6440658       -4166161      -11479824
    632.00000000       -9927522        2301017       14165004       17058268
    636.00000000       10548589       -5683873      -20533870      -22847819
    640.00000000       -9756848        8960504       18699153       16614133
    644.00000000        5956255       -9127970      -13254994      -11148706
    648.00000000       -1091226        7351640        8449380       -1636608
    652.00000000       -8401755      -11664865       -2218465       10520043
    656.00000000       16422937       11484316       -4284273      -19415225
    660.00000000      -18591675       -9910332        7962572       19552914
    664.00000000       18624683        8351501       -7569870      -15621843
    668.00000000      -13500437       -3125529        6575088        9883742
    672.00000000        3374854       -4775573       -7595054       -1390005
    676.00000000        5517279       11791686        9332174       -1411015
    680.00000000      -13115819      -17087376       -9509698        4900766
    684.00000000       17570235       19128681        9533350       -6901423
    688.00000000      -13151782      -12799836       -5075161        5828953
    692.00000000       10029564        5682848       -2127255       -7812412
    696.00000000       -3970270        3838056        9646185        8058468
    700.00000000       -1171841      -11911158      -15471597       -9807054
    704.00000000        1343327       14202454       17200022       10141017
    708.00000000       -2991462      -14016984      -15029316       -6333286
    712.00000000        3119583        9718935        8439204        1607452
    716.00000000       -5596558       -3858002        2251596        6710807
    720.00000000        7329908        1455747       -7041788      -11743380
    724.00000000       -9305799        -332073       11033640       15545488
    728.00000000       11421932        -256741      -10938920      -13893064
    732.00000000       -9759508        1941796        6888962        9678924
    736.00000000        4954689       -2303383       -3883446       -2001917
    740.00000000        2248140        6191453        1931031       -4139854
    744.00000000      -10167643       -6582507         945970       10472693
    748.00000000       13934925       10981791        -627859       -9999877
    752.00000000      -13694556       -9735835         200504        9755777
    756.00000000        9715401        5622424          20986       -5690480
    760.00000000       -4586641       -1593131        3450522        2781270
    764.00000000        -841607       -6349781       -8066712       -2832034
    768.00000000        5430044       11133821       10350684        2745127
    772.00000000       -6307126      -12624914      -10149700       -2904673
    776.00000000        7392114       11439295        8288970        2243102
    780.00000000       -4496517       -5543230       -2837922        1511283
    784.00000000        2951954         -26093       -3117082       -4301087
    788.00000000       -2817911        2824437        8298471        7954754
    792.00000000        2256889       -5190094      -11361333      -10475308
    796.00000000       -1641986        6320695       10099272        8107026
    800.00000000        1792297       -5014942       -7829073       -6387928
    804.00000000        -988405        3519262        3509074         450924
    808.00000000       -3900995       -2136146        -468216        7927038
    812.00000000        7017540        3875499       -4846270       -8692712
    816.00000000       -9526937       -3477278        3970633       11195727
    820.00000000        9959770        3974695       -4341986       -7053248
    824.00000000       -7035970       -2216329        1449450        4320402
    828.00000000        3189788        -898100       -1311885         478097
    832.00000000        2957626        6092628        1141556       -3956295
    836.00000000       -7819673       -6687014       -3079854        3340625
    840.00000000        9304309        9319806        3287686       -3299809
    844.00000000       -8974199       -7053788       -2892897        2045324
    848.00000000        5461140        5852759        1468684        -986020
    852.00000000       -1064380         369439        2343108        1665522
    856.00000000       -2589120       -4849579       -6223583       -3849358
    860.00000000        4008739        8935438        6556058        4335888
    864.00000000       -3343445       -8104354       -9181213       -3976893
    868.00000000        1568851        5879559        6690990        2964168
    872.00000000       -1858282       -2131709       -2021823         475147
    876.00000000         291393       -1345190       -2102408       -4148729
    880.00000000       -1870367         899068        5904440        7386831
    884.00000000        5049465       -1911566       -6772415       -8185552
    888.00000000       -6226550        1072963        6848708        8388433
    892.00000000        4011104         262263       -4944924       -3821991
    896.00000000       -2035421         298938        1552127       -1232424
    900.00000000       -2037222       -1512841         907591        3987453
    904.00000000        6610982        4494536         309107       -6016645
    908.00000000       -7918242       -4819129        -312181        6921590
    912.00000000        7473139        5679289        1131422       -4048033
    916.00000000       -4371535       -2628957        -989329        1111209
    920.00000000         453786         264423        -650074        1029084
    924.00000000        2010996        3437525        2752378       -1545071
    928.00000000       -5482098       -6368426       -5195032         324627
    932.00000000        5236203        8634108        5383345         948788
    936.00000000       -4524764       -6083557       -4177489       -1346302
    940.00000000         828336        2188898        1251853         517051
    944.00000000        -671069        3008861        2667485        1418604
    948.00000000       -1333328       -3887006       -6292288       -3877786
    952.00000000        -122247        5117419        6749348        5270510
    956.00000000          11972       -5313219       -5304605       -4679795
    960.00000000       -1967412        1164111        3391724        2771645
    964.00000000         661238        -244516         303624         929198
    968.00000000         872208        -823981       -3280056       -3734203
    972.00000000       -3704950       -1009352        5129205        6243493
    976.00000000        5785981        1146732       -3527878       -4685179
    980.00000000       -5958591       -2136875        2234012        4473464
    984.00000000        4825489        -122323       -1998152       -1664930
    988.00000000        -286243        -418375        -166632        -928951
    992.00000000       -3621034       -1414238         560348        2781759
    996.00000000        5569733        4352637         996841       -3944990
   1000.00000000       -5032562       -4912286       -1400530        2364571
   1004.00000000        5064087        3291296        1509360       -1024237
   1008.00000000       -3516072       -2085309        -196750        1191586
   1012.00000000        -212588       -2014794       -2436377        -467093
   1016.00000000        2389575        3186122        4118812         -77648
   1020.00000000       -2817733       -5616498       -4569346       -2615712
   1024.00000000        2082643        3546881        2259847        1927751
   1028.00000000       -1338776       -2426377       -1616773        -281878
   1032.00000000        -271999        -258318          68192        -414888
   1036.00000000        1185962        1328557        2140281        2825055
   1040.00000000        -491459       -2421964       -4677848       -3558156
   1044.00000000        -634990        2395964        4554884        3848785
   1048.00000000        1805011        -247894       -3657147       -3312816
   1052.00000000       -1031333         702905        -210567         716498
   1056.00000000          94812        -129143         882108        3869560
   1060.00000000        3056735         467210       -2148535       -5216918
   1064.00000000       -2821262        -843432        2451241        4412170
   1068.00000000        3335600        1851153       -1647399       -4833192
   1072.00000000       -3278311        -673846         -24419         795807
   1076.00000000        1073858         667783        -380795        1205204
   1080.00000000        2158347        1330417        -160998       -2467367
   1084.00000000       -4123645       -1577511        -379299        2869520
   1088.00000000        3431139        3364317        1064327       -1576649
   1092.00000000       -3480608       -4247686        -954144        -597012
   1096.00000000        1169878        2169075         403120         487294
   1100.00000000         709432         733626        1289991        -574140
   1104.00000000       -3258690       -4877313       -1114615          -4777
   1108.00000000        2680526        4228324        3554043         870804
   1112.00000000       -2479171       -3690281       -3959197       -1981698
   1116.00000000         417410        1287911        1422733        1474718
   1120.00000000         459908        -658766          53493        -530969
   1124.00000000        -646523       -2307210       -2771552       -1599413
   1128.00000000        -567652        2515993        3988077        3289013
   1132.00000000         735707       -3145188       -4123207       -3982935
   1136.00000000       -2841428         533952        2106360        2190533
   1140.00000000        1151247        1434487        -232702        -229313
   1144.00000000       -1198387       -1140417       -1672059        -881834
   1148.00000000       -1105744         459063         952875        2951226
   1152.00000000        3197963        2565911       -1041605       -3665644
   1156.00000000       -2780926       -1599466         656112        1891298
   1160.00000000        2939360        1651582        -120875         506025
   1164.00000000        -405339        -671487        -358954       -1668716
   1168.00000000        -707985        -926427         364704        2069944
   1172.00000000        4313970        2303476         125514       -1600992
   1176.00000000       -3041412       -3376525       -2195555        1389160
   1180.00000000        2022486        2056758        1742283         797090
   1184.00000000         805683          81132        -570701        -607941
   1188.00000000       -1058021       -2146777       -1386132        1217129
   1192.00000000        1459856        2382520        2549281         767660
   1196.00000000       -1380143       -2729030       -2708716       -1128842
   1200.00000000         493194        2181934        1801922        1344851
   1204.00000000        -348948        -509744        -907974        -978815
   1208.00000000       -1245608       -1007000       -2140701        -676293
   1212.00000000         588950        1908947        2038033        1911511
   1216.00000000         789846       -2007993       -3034787       -2715201
   1220.00000000        -612805         666813        2057682        2131572
   1224.00000000        1134889         580627        -542543       -1420104
   1228.00000000        -889863        -289756        -275034        -302461
   1232.00000000         962247         611797        1730337        2123733
   1236.00000000        1461549        -590791       -1468475       -1371235
   1240.00000000       -2517018       -1164875        1889884        2212119
   1244.00000000        2026087         768483         780212        -711950
   1248.00000000        -804666       -2295550        -909277       -1016974
   1252.00000000         154582        -368906        1069868        1810236
   1256.00000000         943332        1003105        -379789       -1201966
   1260.00000000       -1623399       -1330827        -380639         428629
   1264.00000000        2753761        1615170        1909393        -634328
   1268.00000000        -697023       -1689135       -1240966        -144151
   1272.00000000        -488130        -223406         820157        -115492
   1276.00000000        1132179        1485590         348464        -380832
   1280.00000000       -1565675       -1618487        -741003          28009
   1284.00000000        1751928        2138745        2083443        1620078
   1288.00000000         -20548       -1146655       -1703319       -1177110
   1292.00000000        -652341         -45522          46959         385368
   1296.00000000         577724         984115        1025571         185180
   1300.00000000       -1145735       -1666600        -972084        -849187
   1304.00000000         281592        1731833        1927487        2239066
   1308.00000000         886757        -128041       -1436389       -1814060
   1312.00000000       -1153480         -28808         160223         786701
   1316.00000000        1009891        1568387        1606196        1083492
   1320.00000000        -655063       -1097728       -1847102       -1868306
   1324.00000000       -1257986       -1101492        1165879        1876854
   1328.00000000        1525098         542495        -491580       -1522635
   1332.00000000       -1912158       -2425332        -447667         885923
   1336.00000000        1256291         906190         960288        1247364
   1340.00000000        1078122        -271887        -628238       -2039953
   1344.00000000       -1522666       -1072338        -323987        1011045
   1348.00000000        1902624        1844214         971510          92111
   1352.00000000        -318018       -1678359       -1142544        -154787
   1356.00000000         582318         289467        1057767         874935
   1360.00000000         983072        1009372        -870826        -649064
   1364.00000000       -1826131       -1730890        -525095        -176802
   1368.00000000        1628375        1533995        1761061         363615
   1372.00000000        -294620       -1071974        -879266        -753444
   1376.00000000         366619         676086         828270        1190983
   1380.00000000        1407387         602979         459884         342807
   1384.00000000        -541737       -1134990       -1299341        -291705
   1388.00000000         600081         984205        1119875         992854
   1392.00000000         374772        -438907       -1018032       -1420197
   1396.00000000        -853630        -189775          43992         842744
   1400.00000000        1150550         908932        1148325         444597
   1404.00000000         201243         -39489        -926106        -810773
   1408.00000000        -710830         -15667        1103774         658190
   1412.00000000        1978310         483012        -711357        -782537
   1416.00000000        -940606        -818284        -644565         332318
   1420.00000000        1045774         531884         685362        1780323
   1424.00000000         432687        -528200        -920813        -859402
   1428.00000000         -15356        -277235         749001        1644546
   1432.00000000        1152841         846308        -255359       -1002749
   1436.00000000        -751905          72759        -764513         113243
   1440.00000000         -88407         471155         903996         672140
   1444.00000000         357292         -28782         552526        -189781
   1448.00000000        -534567        -602785         234572         757094
   1452.00000000         992971         750106         686246         359521
   1456.00000000         576011        -965962        -848060        -238858
   1460.00000000        -665314         710064         793701        1243761
   1464.00000000         331094         548466         124831        -683503
   1468.00000000         -81287        -274162          33310          42847
   1472.00000000        1268481        1379361         292983         337633
   1476.00000000         352213        -477853        -756213        -834929
   1480.00000000         -91853         967746         628050         764805
   1484.00000000         509432         -39257         625856        -543045
   1488.00000000       -1326206        -619286        -329612        -196907
   1492.00000000         689380         693237        1616678         255297
   1496.00000000          83032        -339804        -955676        -597105
   1500.00000000        -143249         177694         420068        1357116
   1504.00000000        1096823         787043         542842         -33831
   1508.00000000       -1101824       -1032631        -928586        -372497
   1512.00000000          55768         794350        1602257         830931
   1516.00000000         129124        -324228        -791076        -329452
   1520.00000000         152598         158603         518295         999436
   1524.00000000        1353401         484382         421485        -189274
   1528.00000000        -281422        -673290        -656075         -30596
   1532.00000000        -641316         540854         916760         909234
   1536.00000000         482941        -414376        -631151        -177768
   1540.00000000       -1268600        -996346        -190107         354947
   1544.00000000         787268         152510         483701         290908
   1548.00000000          90682          61657        -544235        -751203
   1552.00000000        -267840         462042         -73757         924082
   1556.00000000         951280         416785         -27319        -926359
   1560.00000000        -727998        -723992        -306639         290096
   1564.00000000         266334         288373         705310         501445
   1568.00000000         141374         151665           7051        -500240
   1572.00000000        -432055        -339885          95836         427520
   1576.00000000         701971         671894        -127797         101069
   1580.00000000        -496868        -583442       -1576869        -699489
   1584.00000000        1248746         665828         770488         453959
   1588.00000000         601508         100049        -278023        -346688
   1592.00000000        -112326         176979         162465         237469
   1596.00000000         245978        1082865        1332540         352143
   1600.00000000          42136        -108051        -484375       -1086362
   1604.00000000          33927        -331261         209907         889733
   1608.00000000         507027         657195          73252         406230
   1612.00000000        -752141        -177426        -590991        -289935
   1616.00000000        -553569         464031         576026         578966
   1620.00000000          48595         134861         214592        -720854
   1624.00000000        -205838         104844         498011         891379
   1628.00000000         237069         552176         -27466         -94290
   1632.00000000        -155516        -192121        -635151        -840430
   1636.00000000        -426992        -393767         308040         255193
   1640.00000000         452989         131522          18404        -770090
   1644.00000000       -1425226        -771907        -413472         324957
   1648.00000000         518211         668343         292679         389578
   1652.00000000        -455568        -283237        -982269          61828
   1656.00000000        -208750         381313        -473256          81034
   1660.00000000         418793         151781        -187159        -140651
   1664.00000000         -91740        -622363        -804532          22716
   1668.00000000        -199009         295562         416016         369790
   1672.00000000        -195106        -373129        -492882        -495943
   1676.00000000         398790        -217837         648273        -110980
   1680.00000000        -322820          63303        -256246         -86540
   1684.00000000        -265284        -477227        -591418        -276338
   1688.00000000         232901         206669         257099         589657
   1692.00000000         200206        -801353         135920        -882835
   1696.00000000        -366494         500222         180302         262012
   1700.00000000         569823         -60368        -566959        -738554
   1704.00000000         273699         794145         128011        -308012
   1708.00000000         115937         101825         -44533        -291225
   1712.00000000         165890          60961        -468864        -572842
   1716.00000000        -361635         -71150          48122         167224
   1720.00000000         324327         159143         -10373         -84922
   1724.00000000          39347          -9281        -177943        -172991
   1728.00000000         297507        -170444        -184834         300129
   1732.00000000        -229445        -339344          94879          17007
   1736.00000000        -271684        -631649         -54163            597
   1740.00000000          34435         523067         193673        -246130
   1744.00000000        -100882        -159228         121911         -41724
   1748.00000000         -52448          59650         198224         163538
   1752.00000000           7787         160428         103165        -198068
   1756.00000000        -123922          62866        -414588         891609
   1760.00000000        -118134         -10910         636086        -583670
   1764.00000000        -924779        -998525         -87717        -161532
   1768.00000000         174899          60723          16637          58815
   1772.00000000          62382         -27766         -89002          33012
   1776.00000000         262939          99996        -449473        -206280
   1780.00000000         310652         776582          80163         212843
   1784.00000000         215442          -3015        -195905        -359549
   1788.00000000        -272967        -327665        -245372         391268
   1792.00000000        -171999         -52412         176206        -286599
   1796.00000000         247954         393088         298932          59784
   1800.00000000        -103424        -141306        -218711          80077
   1804.00000000         213334        -511570        -160138         -36082
   1808.00000000         -91589          -9500        -157818         300676
   1812.00000000         -77683        -210558         -88070         -32399
   1816.00000000         378056         191982        -222736        -162699
   1820.00000000          19565        -196538         558378         328192
   1824.00000000         403822         -25125          97875         -79034
   1828.00000000        -286585           9845         117885         -22863
   1832.00000000          50076         386689         255222        -296190
   1836.00000000         467303         143336        -386945        -262035
   1840.00000000         -47288         -35032        -269485         247803
   1844.00000000         475911         235413         -75163        -319222
   1848.00000000        -530846        -159123        -114359        -417253
   1852.00000000         136206         416178         110029         609281
   1856.00000000         444221         380124        -164767        -713826
   1860.00000000        -339486        -202184         134475        -290107
   1864.00000000         315586          66271         304001          78672
   1868.00000000        -181320        -188036        -742855        -383287
   1872.00000000         240826         381340         159082           4164
   1876.00000000         165784        -125503        -234862         -68783
   1880.00000000         127851        -500978        -381529        -376875
   1884.00000000        -129384         442290         289221         475464
   1888.00000000         315819          38399        -531889        -377208
   1892.00000000        -674059        -533201         306544          21550
   1896.00000000         375850         221744         -66672         568531
   1900.00000000         -68558        -404387        -165272           7702
   1904.00000000        -517173        -429356         -19949         224487
   1908.00000000         359033         459115         125274        -498997
   1912.00000000        -645543         119928        -472244          17383
   1916.00000000         -86571         451943         -71940         312224
   1920.00000000        -403773        -706182        -264824        -622581
   1924.00000000        -533113        -130443        -112295           2486
   1928.00000000         390791         161075         271643         189138
   1932.00000000        -278667        -434935         -97052        -272839
   1936.00000000           4427          38079         135535         293116
   1940.00000000          85622         290945         199264        -248021
   1944.00000000        -746156        -454819        -348077        -384679
   1948.00000000          14302         281747         261015         171384
   1952.00000000        -446009        -148820        -711512         -77430
   1956.00000000         150540          10793         -57017         343586
   1960.00000000         115004         229066         -87600         154588
   1964.00000000         -42337        -254374        -432737         -90951
   1968.00000000        -121288         -32542           1984         300805
   1972.00000000         479867         341082         -18288        -774195
   1976.00000000         -73103        -206129          77108        -211058
   1980.00000000         234110         -55888        -108985         177868
   1984.00000000         208445        -233669        -383706        -119240
   1988.00000000         -88882         -57037        -142979          66194
   1992.00000000         241701          15296          50038          15259
   1996.00000000        -338004        -176917         167701        -210952
   2000.00000000         -16116         -20977          81086         -45459
   2004.00000000         -16570          91411          74798        -125510
   2008.00000000        -361942        -405549         104407         149496
   2012.00000000         530308         329071         -37461         133482
   2016.00000000         -40269          33635          64599          52083
   2020.00000000          62081         182072         -47107         229645
   2024.00000000          30882         321740         119140          84899
   2028.00000000        -113703        -209268        -623366        -304163
   2032.00000000         104020         179193         398220         191879
   2036.00000000         198081         127171        -210449        -224333
   2040.00000000        -397992         167599        -113391         -98541
   2044.00000000         239709         253376         107893         112068
   2048.00000000        -171293        -281300        -510667        -278535
   2052.00000000        -105109        -159493         338416         147357
   2056.00000000           -115        -164974         179333          11343
   2060.00000000        -103759         -34075        -236556        -158332
   2064.00000000        -340824         187656         195092         525259
   2068.00000000         131653         334669        -417315        -222957
   2072.00000000        -434048          36234        -467102         540391
   2076.00000000         168972         147561         113501         -74241
   2080.00000000        -137770         152488          39286         101947
   2084.00000000         175013        -138838          43075         372629
   2088.00000000         191796         185102        -228732        -131236
   2092.00000000         -43428         -70488         -44758          70651
   2096.00000000         248305         215623         -42649          36635
   2100.00000000         213284         -25004         -65538         -51370
   2104.00000000         -88917         -57767        -147772         156271
   2108.00000000           3576         365897          87470         181039
   2112.00000000         278975        -202242         147190         401950
   2116.00000000        -441400         163501          32956          64906
   2120.00000000         211959         363902        -170832         -72286
   2124.00000000          81926          24777        -325147        -120212
   2128.00000000        -105462         298943         273937          55678
   2132.00000000         146835        -190869          60382        -101941
   2136.00000000        -407023          99191        -129534         -51959
   2140.00000000         101893         249407         197275         111472
   2144.00000000         145434        -258642        -154448         105512
   2148.00000000        -290156         159296         113689         137465
   2152.00000000         -73180          85107         -10864         164892
   2156.00000000         -12350           7440        -201961         181336
   2160.00000000        -145124         -81565          22762         298891
   2164.00000000        -114678          57513         287552          15719
   2168.00000000         452269         -32891          23144          60902
   2172.00000000         -98975         342426          48601         -62174
   2176.00000000         -86882        -254889        -172872         218656
   2180.00000000        -157678        -171901          28090          70521
   2184.00000000         -75809         250034        -170256        -318482
   2188.00000000         393161        -156035         196945         -57027
   2192.00000000        -180975         -79662         -80487        -284992
   2196.00000000         102028         -94161        -233298         113149
   2200.00000000        -194604         289458         184574         105189
   2204.00000000        -283124         196137           1245        -311632
   2208.00000000         100765         238565          19214         150610
   2212.00000000          23650         -13017         145561         105394
   2216.00000000         -12820        -157597          35431          13719
   2220.00000000          14730          13434        -106837         -70484
   2224.00000000          -5933         236643         -55804         246274
   2228.00000000        -102809          49761        -288943         198219
   2232.00000000        -111461         -37891         271996         -26144
   2236.00000000        -331936         -70285         -56237          67826
   2240.00000000        -212820         -97074         187410         148300
   2244.00000000          63707          -7981         108798         -43996
   2248.00000000        -185214        -130128         -85537         127085
   2252.00000000        -100679         -59058         -14713        -158048
   2256.00000000         146808        -118732          20120          94967
   2260.00000000          68891         348542          18025         215159
   2264.00000000        -104798         -16187         117686        -212955
   2268.00000000        -102560        -116787         150505         159195
   2272.00000000        -131947         105961         103587          83532
   2276.00000000         -44195         232838          78116          18519
   2280.00000000        -138714         216672        -144285         -73963
   2284.00000000         156366           6038         -25684         -61811
   2288.00000000          30600          45667        -177186         -87980
   2292.00000000         163595        -133647          58139         -39687
   2296.00000000         -15462          93375         110005          92003
   2300.00000000        -151151          44313         -64204          17065
   2304.00000000         -79309         -71616        -177544           9269
   2308.00000000         208241         102882           7419          25013
   2312.00000000         162066          13692          -9796         -49080
   2316.00000000           8471          97159         190292         152690
   2320.00000000          62061         222855         198925         -47849
   2324.00000000          -4819          50500           7341        -347732
   2328.00000000         176799          -6356           5748         110733
   2332.00000000         -52478         -53093          40929          47976
   2336.00000000         -10269         -10663          47461          -8315
   2340.00000000        -127648        -126469          12591         -12763
   2344.00000000         115629         -59521         -33985           8610
   2348.00000000        -109604         -33551          37816         142698
   2352.00000000         109152        -153778         155572         105174
   2356.00000000          -2573         -71126         -88284        -242418
   2360.00000000          12830          85859         124921        -163192
   2364.00000000         -88470         347037          38794        -125603
   2368.00000000          51912          65547         114652         167350
   2372.00000000        -167288         336785           6857          57591
   2376.00000000        -182678          82440          -4855          24172
   2380.00000000          55663          19641         -69294        -167087
   2384.00000000        -185991         -61317         134898        -120688
   2388.00000000         177244         -37098           8797          25716
   2392.00000000          31634          -6174        -141184         -93096
   2396.00000000         -12594          45796          58804         -88939
   2400.00000000         -79183        -143224          49222         136707
   2404.00000000          24033          53851        -322432         102910
   2408.00000000         163631        -128736         -61903        -158025
   2412.00000000         -94280        -100029          23930          92219
   2416.00000000        -144320          34787         173161          90498
   2420.00000000          83017         -80676          -8394         -46284
   2424.00000000        -171730        -159292          14986         -16854
   2428.00000000        -204525        -171460         -53365          -1835
   2432.00000000          33249         -20444          84683         -38536
   2436.00000000          73661          88465        -310940         128256
   2440.00000000         169045        -155222         168701         -28174
   2444.00000000         -87534         179807          -4729         -98967
   2448.00000000         188947         -22911         103439          58774
   2452.00000000          14634          16273        -133484          15076
   2456.00000000         -24480          97916         -58319          12944
   2460.00000000         108130         165005         103849         -52726
   2464.00000000         -22053         -68258        -110527         -54958
   2468.00000000         257963          -1470        -168755         -72175
   2472.00000000          84938        -167082         -39241         -94862
   2476.00000000         -40704        -116089         169194          33777
   2480.00000000         175030        -131978        -102634         147161
   2484.00000000         -77332         -76075         -54133         -99610
   2488.00000000         110916         -16620         143185         -23960
   2492.00000000          40048          27507         -50668          74154
   2496.00000000         -87812            345          93425        -105844
   2500.00000000         -53076         -30912         -99142         133772
   2504.00000000          77074        -189071         -89692        -266567
   2508.00000000          28938         126478          70021          98438
   2512.00000000         -39416          73034         142105         -85659
   2516.00000000        -129375         -53938         -85780        -164356
   2520.00000000          55583          -4339          78395         163057
   2524.00000000          15700          39091          85310          68342
   2528.00000000          -8516          -1844        -140997         -96247
   2532.00000000        -205923          35438          39350          32363
   2536.00000000         -93210          34552         156226         177520
   2540.00000000         192368         -79958         -70414          13531
   2544.00000000          38300         -46672         -35979         -50520
   2548.00000000         -30960         -96285         110346         153494
   2552.00000000          -1811         113777         -88295          93368
   2556.00000000        -133581          74813        -114059         -72097
   2560.00000000          -3402        -146357           9723         134881
   2564.00000000          87642            489         -95597         -16603
   2568.00000000         -22187         -51676        -119086           2606
   2572.00000000         108210          80843         -93715            -14
   2576.00000000         112627          56133        -327501          76259
   2580.00000000           3803         103225          12327         -27665
   2584.00000000         144619        -161149          14109         -58984
   2588.00000000        -161104          16533        -142215         -49455
   2592.00000000        -166955        -217082         170962          87539
   2596.00000000          68706        -180829         -11709          51440
   2600.00000000          61521        -116906        -134573         -90916
   2604.00000000          57005         208549        -145045         -41794
   2608.00000000           4357          37989         -99819         -15984
   2612.00000000         156793         -93945          67818        -120127
   2616.00000000          76413         -61852         -73072         -31476
   2620.00000000         -38506          44699        -116569          60782
   2624.00000000          43288         -20795          81238         -29406
   2628.00000000           2947         -71427        -177863         -25023
   2632.00000000            379         165897          30496         -73453
   2636.00000000         -94606         -24646        -132857         -88971
   2640.00000000          63658        -170918        -182700         -22328
   2644.00000000          10760          22053         -31228        -166907
   2648.00000000          67966         -95338          37284         -48135
   2652.00000000         -77175          -4255         -12846          65944
   2656.00000000          37682         -97020          36431         -37047
   2660.00000000         -53055        -127262          21261          -5337
   2664.00000000          77046          -3088         -72691          76333
   2668.00000000          86889        -137997        -115622          24188
   2672.00000000         -28049        -183483          98188         -31188
   2676.00000000         -11359         -11316          55301        -117265
   2680.00000000         100205         -32740          52508         158412
   2684.00000000         -11320          15761          44066         155816
   2688.00000000         180138        -142795          76739          58310
   2692.00000000         193100          50755          53094          89075
   2696.00000000           3429         -11137          88559          27443
   2700.00000000           5449         -24147          39478         117420
   2704.00000000         -48050          44233         -46965         -50484
   2708.00000000         102433          47141         119231          54214
   2712.00000000        -188142        -118461           5703         123848
   2716.00000000           -188         -12826         122385          -7492
   2720.00000000          61243          10758        -208733          80457
   2724.00000000         151833         -64444         -34775           8115
   2728.00000000         152077          31699         122768         101382
   2732.00000000        -142155          23612          13697         112490
   2736.00000000         -45085          -7362          83679          98014
   2740.00000000          66661         -76338          28607        -119853
   2744.00000000         -20711          89674         119589          28712
   2748.00000000          32086           3838          54703         -48670
   2752.00000000        -218366          73521            804          92212
   2756.00000000          81564          64970           3801        -136170
   2760.00000000         -80054          57818         139058        -126354
   2764.00000000          29965         -52241        -180180         -62986
   2768.00000000          82414         -61019         -40366         -63179
   2772.00000000         -34534         -14895         169980          11790
   2776.00000000          10415          29865         -12015          65581
   2780.00000000          45684          70787         -49202         -95553
   2784.00000000        -101383         -50736          29049          32346
   2788.00000000          35221          20387          -2070         146204
   2792.00000000         -89321            238          81892         -24173
   2796.00000000        -106641         -67887          46559          37031
   2800.00000000          51158         -31670         127872         125835
   2804.00000000          47659          26178          88988         -74431
   2808.00000000           2851         185795         -41305         -26450
   2812.00000000           3875          13530         -15291          16579
   2816.00000000         -49085         -60483          44685        -103052
   2820.00000000         -83478          83686         155999         135605
   2824.00000000          15410          10341        -140427          -6074
   2828.00000000         -92674         101083         -19889          60249
   2832.00000000         114183        -130871         -30440          52845
   2836.00000000          -2093          -7817         -98806          26290
   2840.00000000          -4510          18978          19607          -1780
   2844.00000000          -6876          50443         -14136         -37303
   2848.00000000          32485           -534         -12347          10763
   2852.00000000         -29591           8221          26262         -16462
   2856.00000000          19060          46591           9819         -98784
   2860.00000000          46076         -23880          55774         122160
   2864.00000000          58606          92920          -2947          96207
   2868.00000000           3496        -107427        -140074         -22242
   2872.00000000          10890          39009         -70307          75241
   2876.00000000         -77647         -55581          -4297         -34828
   2880.00000000         -42036         -23832         -70654          26877
   2884.00000000         -25884         -34520          43788          -8612
   2888.00000000           8200         -14628         -82174          91026
   2892.00000000          21439          26891        -132538          46521
   2896.00000000         -20674          75825         -47568          70256
   2900.00000000         -12552         -38785         -59244         -80066
   2904.00000000         -58187          -6188         -29101        -108598
   2908.00000000         -21952          73798          88013          11758
   2912.00000000          56311           8569           6823          25165
   2916.00000000          11323          20957        -110188        -102448
   2920.00000000         -50029          72114         -41131         -28933
   2924.00000000          31246          29641           4838          93806
   2928.00000000         -43005         -19786         -12651           4689
   2932.00000000          -7576         -22261         -96987          29059
   2936.00000000          23598         -55443          26712          47645
   2940.00000000          93471          90670         -71191          34528
   2944.00000000          71054        -105106          50720           8262
   2948.00000000          97880          22176         106017          -6169
   2952.00000000         -89017          -2554         -58848          13619
   2956.00000000          65279         -26703         -52588          16560
   2960.00000000          14886          35927          71567          22393
   2964.00000000          -4432          49576          24651          39398
   2968.00000000          44305         159438          -9355         101322
   2972.00000000           -836          37830           9160          44732
   2976.00000000          30406          52099         -62260         116186
   2980.00000000           7671           6835          84757          47978
   2984.00000000         -16252         104395          48837           7822
   2988.00000000         -61278          50913          61470          44405
   2992.00000000         -36164          66907          -3780           7837
   2996.00000000          28330         -73969          10791         -65659
   3000.00000000         -32203          16330          29300          61685
   3004.00000000          71172          52438          94776           5563
   3008.00000000         -27656        -148896          12536          36749
   3012.00000000          93449          22427          -2938          -6710
   3016.00000000         -59896          79257          95361        -127678
   3020.00000000        -115058           2524         -54743         -56009
   3024.00000000         135995         102246         -56070        -139212
   3028.00000000          41886         -56684          76600          64003
   3032.00000000         -53312         -18795         -12421          85972
   3036.00000000          22707          26390          10549         -21620
   3040.00000000          25007          -4268         -13157          25512
   3044.00000000          -2314           3159          45130          82401
   3048.00000000           2134          -4612         -44078          18778
   3052.00000000         -55765          45487            883         119464
   3056.00000000          39779          12768          44236          26556
   3060.00000000          49105         -38357         -23893        -180388
   3064.00000000         -36891          44261         -41261          26747
   3068.00000000         -70521          36999          50182        -103860
   3072.00000000         -76828           7529         -30789          34395
   3076.00000000          72202           8566          68585          47192
   3080.00000000         -91517         -49097          10809         -32423
   3084.00000000           4998          48718          66953         -30045
   3088.00000000          54617           5247         -34883          38000
   3092.00000000         -66748         -85698          46012         -82612
   3096.00000000          35655         -74637         -36170          73772
   3100.00000000          32862         -32863         -37144          15643
   3104.00000000          75827          33042         -35218           5325
   3108.00000000          56326         -11948           7581         -55744
   3112.00000000         -21648          -9120         -97798          26478
   3116.00000000         115762          -2356         148888          52519
   3120.00000000         -26219         -20127          24541          -3557
   3124.00000000         -77782         -66278         -90362          29109
   3128.00000000         -28007           6156          73824           1507
   3132.00000000            401          18710         -35659         -18781
   3136.00000000         -47514         -33417           1467         -29639
   3140.00000000            128          85675          -1311         -22711
   3144.00000000          18196         -17732         -30531        -102357
   3148.00000000          32029          65592         -20494          43521
   3152.00000000           -558         -26083           4015         -61687
   3156.00000000          10475         -18302          -9994          28285
   3160.00000000          33204          86982          -8442         -58365
   3164.00000000         -36143         -16312          11466         -15589
   3168.00000000          -2277          66240          13255         -29804
   3172.00000000          47944          29690          21831          60320
   3176.00000000         -76572         -46453         -74554        -121678
   3180.00000000          22767          42275         -19440          37721
   3184.00000000          38924          30198         -14978          35530
   3188.00000000         -15559         -68827         -28940          18591
   3192.00000000          22440          -4655         -55878          20195
   3196.00000000          29248         -36164          -6754         -21112
   3200.00000000          17407         -13281          14552          13974
   3204.00000000          14982         -40420         -23803         -16950
   3208.00000000          -3999          51448          -7342         -10295
   3212.00000000          67317           2591           1710          32371
   3216.00000000         -43495           1689         -27831         -83069
   3220.00000000           3099         -43430          32777         144267
   3224.00000000         -10094         -21750         -47010           2308
   3228.00000000           5362         -13979          31962         -39567
   3232.00000000         -14214         -64052         -55115          33526
   3236.00000000         -24339          -2856          24569          46887
   3240.00000000         -17332           7186         -56125           6760
   3244.00000000         -24291         -21176         -58449          53485
   3248.00000000          -4354         -51581           5778         -18500
   3252.00000000          -6503          14049           5556         -16349
   3256.00000000         -66140          30438          66103          32518
   3260.00000000          35388          29390         -34499          13268
   3264.00000000         -60892         -30220         -17877          16894
   3268.00000000          12255         114730         -16089          34944
   3272.00000000         -42446          25872         -55035           5421
   3276.00000000         -59621          -8624         -31887         -28067
   3280.00000000           9211          11781          -4360         -36308
   3284.00000000          20842         -85094          -8543          60437
   3288.00000000          34985         -27577          16679          11837
   3292.00000000         -31409         -50219           7058          -4100
   3296.00000000         -15688           4439         -24628          -1408
   3300.00000000          57294         -28303          -1192         -32825
   3304.00000000         -70694          14693         -27809          38116
   3308.00000000          14407         -23339         -29163          19570
   3312.00000000         -75324          37096            539          -9637
   3316.00000000          47730          45960         -34337         -19383
   3320.00000000          18210          -9732          13178         -39720
   3324.00000000         -19711          19743         -16315          18446
   3328.00000000         -41402          34545         -24209          -5193
   3332.00000000         -47175         -41552         -42795         -23491
   3336.00000000         -47846         -21848            686         -62677
   3340.00000000         -39694          22069         -37832         -16845
   3344.00000000         -43679          17156          -2689          55633
   3348.00000000         -35501          39615         -50500          37408
   3352.00000000          -9351          20794         -74106         -22408
   3356.00000000          30462          43196          70136         -53477
   3360.00000000         -18078          42048          40309          27062
   3364.00000000         -31650         -56775         -12425         -29745
   3368.00000000         -60337          36679         -42158          31158
   3372.00000000         -11741         -63150         -34807         -72050
   3376.00000000         -10660         -42472           6546          -3534
   3380.00000000          22021         -33431         -83903         -45360
   3384.00000000         -21054          48905         -47402          17821
   3388.00000000         -42763          42706         -41207         -24212
   3392.00000000          -2450          40976         -36817         -46971
   3396.00000000         -56493         -75935         -13579          58994
   3400.00000000          16417         -63273          -1680         -47658
   3404.00000000         -58082          35681         -12102          44915
   3408.00000000           3389         -26533          -5054          25504
   3412.00000000           -638           1361          -1532           4926
   3416.00000000         -48738         -74243          -2017         -15993
   3420.00000000         -15549         -43178           1157          12714
   3424.00000000         -16215          24910           2156          44230
   3428.00000000         -29608          21133         -24429         -30010
   3432.00000000          -5532          44964         -74260          19556
   3436.00000000         -23173         -27707         -53574         -33552
   3440.00000000         -24156          -9279          19505         -11523
   3444.00000000         -26464         -11488           1998          -9400
   3448.00000000          69642          26650          29873          24335
   3452.00000000         -33788         -20773         -40846         -37149
   3456.00000000         -27806         -59498         -21687          -2027
   3460.00000000         -53387           8278          10518          62312
   3464.00000000         -32492          27242         -28390          17580
   3468.00000000          71328          33356          -5674          27754
   3472.00000000         -16706          27291         -29786         -23394
   3476.00000000          53835         -54989         -35946         -11784
   3480.00000000          26925          42701          11355          19450
   3484.00000000          -9295         -29739         -54378          -3404
   3488.00000000         -22965          11577         -16238          25306
   3492.00000000           3558            445         -17566         -19163
   3496.00000000         -27810         -12077           3145         -10014
   3500.00000000          32540          10224         -11357          42781
   3504.00000000         -16704          11596         -45083         -16505
   3508.00000000         -32059          41986         -37157          23695
   3512.00000000          17909          22220         -16921         -54182
   3516.00000000           4696            523          37009           3862
   3520.00000000         -18523          22917         -20659          17422
   3524.00000000         -45668         -42961          -5707          -1251
   3528.00000000         -27334         -14766          13123         -33666
   3532.00000000          10061          19956           2869          51466
   3536.00000000         -14490          12004          27742           1938
   3540.00000000          46538          -5245         -19437         -52467
   3544.00000000         -28851          56209         -25212          29312
   3548.00000000         -13843          29705         -13449          26306
   3552.00000000          49829          22741          35638         -23578
   3556.00000000         -10913           7395          -8438          33697
   3560.00000000          40752          13303          -6043          -1972
   3564.00000000         -11250         -27717           8880          36287
   3568.00000000          46573            343          24370         -38390
   3572.00000000         -72376            338          63509          84072
   3576.00000000          11424           3866           9507          10317
   3580.00000000          51534          27299         -27682          61778
   3584.00000000          24335          16729          14774          -5108
   3588.00000000          13017          57320         -28413         -45929
   3592.00000000         -28840         -21542         -40830          29954
   3596.00000000          40167          22176          21468          24618
   3600.00000000         -26282         -29025          53199           8516
   3604.00000000          41512          -3671           1255           -628
   3608.00000000         -13585         -11427          11844          22032
   3612.00000000         -21395         -39424         -19016         -20603
   3616.00000000           8509          29592          -9985         -23982
   3620.00000000         -39731         -32667           7251          -9053
   3624.00000000         -18400          -7058         -26967         -12313
   3628.00000000          -5241          43083          50881          37136
   3632.00000000         -22777           3441           9451           6857
   3636.00000000          -7080          47261          -7816           4434
   3640.00000000         -36245           -864           -773          -6568
   3644.00000000          -1907         -23570          25449          -4117
   3648.00000000         -37551         -35436          45784          45662
   3652.00000000          13848          40466          15145         -16684
   3656.00000000          -8290          17408          52576          54547
   3660.00000000          10422         -25864         -18462          22540
   3664.00000000          -6214          -6044          -8012         -33416
   3668.00000000         -13898           2029           6258         -22884
   3672.00000000          -1007          16677          30275          -8077
   3676.00000000           1316         -20001          11635          13903
   3680.00000000           -478          16532          -6411          -9069
   3684.00000000         -13860           -253          -7663          15369
   3688.00000000         -15668          11577         -23439         -35496
   3692.00000000          30412         -19455          32633          36058
   3696.00000000          27150          -7687         -13474         -22373
   3700.00000000          29204          22854           9480         -32108
   3704.00000000          12024         -24225          41732          42851
   3708.00000000           -212          10057         -14487         -33343
   3712.00000000           -593          -8991          23802          -4347
   3716.00000000           6312          -2951         -28349           9074
   3720.00000000          -5202           5073          20596          25519
   3724.00000000          24392         -32242          12445           7711
   3728.00000000          16492          15370          17157         -17848
   3732.00000000           7942         -18853          12115          37810
   3736.00000000          43592           2464          -4693          -6245
   3740.00000000          -4785          -8590         -23229           2279
   3744.00000000          32609         -25262          24654          -5860
   3748.00000000         -11929         -49346          -5019           9401
   3752.00000000           6163         -49260         -11262          13965
   3756.00000000           8679          70699           1084          -2780
   3760.00000000         -30180         -15416         -18975           1848
   3764.00000000          -6781           3501          32598         -14826
   3768.00000000           -745         -18688          16537          -7629
   3772.00000000          21746           1394         -12752          25187
   3776.00000000         -16606          40213          32491          27426
   3780.00000000          20663         -15386         -47204          -3599
   3784.00000000          23655          47591           3833           3302
   3788.00000000           5479           9703         -12261         -26594
   3792.00000000         -21879           3720         -41199         -41909
   3796.00000000         -28661          21787          14950           3124
   3800.00000000          -2914         -15479         -15757         -14417
   3804.00000000         -44837           -514          16534           8556
   3808.00000000           8070         -16487          10942           9778
   3812.00000000           7776           8138         -16150          16509
   3816.00000000         -12863         -26474          40168          27443
   3820.00000000         -12124           5130          20364         -12573
   3824.00000000         -44023         -15173           2263          13871
   3828.00000000          33459          34716          13648          14163
   3832.00000000          17820          -9114           -875          -8590
   3836.00000000         -16886         -16121          -4177          -6912
   3840.00000000          -6260           9783          23499           7602
   3844.00000000         -25822          -2808         -33220         -31705
   3848.00000000         -33601          40560          22617           6691
   3852.00000000           7658          -7312           6400         -16874
   3856.00000000          -9262           5511           6996         -38466
   3860.00000000         -19962          -2737          17680         -11980
   3864.00000000         -30721         -22359          -3861            832
   3868.00000000          -3057         -11888           1385          30378
   3872.00000000         -16860         -10454          23712          18448
   3876.00000000         -10483           8844         -34006          12539
   3880.00000000           -949           1439         -15541          23018
   3884.00000000          30578           1927          -8650         -10067
   3888.00000000         -14310           2539          38833            293
   3892.00000000          42125         -13475            860         -12517
   3896.00000000          -7845         -13749          12967         -15344
   3900.00000000         -25205          -1461         -25205          34000
   3904.00000000           6014          -4325          -2833         -30395
   3908.00000000          33879          12774          -1674           3482
   3912.00000000          24526           9122          22872          -6728
   3916.00000000           1415          -4771          13938          25151
   3920.00000000          -3280           1789           7867           3306
   3924.00000000           1819          -7126           5157          -4058
   3928.00000000          -8037         -36795          -6823          10123
   3932.00000000          19188          29620          16536          12399
   3936.00000000         -35155         -33701          -6072         -24825
   3940.00000000            152          16217         -20377           4545
   3944.00000000           6961         -29456           4498          -2582
   3948.00000000          13224          -2410           5029         -12402
   3952.00000000          -3305          19433          -6038          13231
   3956.00000000         -23873         -15836          -1586         -11753
   3960.00000000           6432          -3812           2654         -24881
   3964.00000000           2661           3787           2899          15559
   3968.00000000         -15530          -6145         -16721         -23886
   3972.00000000         -12459           2210           8113         -11244
   3976.00000000           4860         -14843         -14042          -6321
   3980.00000000         -16904          -8915         -10038           -374
   3984.00000000         -31953           5629          19199            504
   3988.00000000          -4785          -4736         -16754          -8206
   3992.00000000         -10619          -8011           1278         -10723
   3996.00000000           -611          -6636          -7312          -9764
   4000.00000000         -22932          12154            434           7252
   4004.00000000           9977         -14740           6643         -11588
   4008.00000000         -11758           1868         -16379         -30722
   4012.00000000         -18578          -1020          -1156           -588
   4016.00000000           1153          11160          -6782          19012
   4020.00000000          -9419          -8590         -13494         -11804
   4024.00000000           2263         -19271          -2956         -36047
   4028.00000000          16327          35573         -16211          -4566
   4032.00000000         -14521           2302          -2231         -16490
   4036.00000000            157         -12314           6928         -29028
   4040.00000000          -7605          -1047         -28627          29478
   4044.00000000          -4929           6749          -8909          11839
   4048.00000000          12510          13175          -3584         -12166
   4052.00000000         -10888            -75          -9373         -17336
   4056.00000000           6247           1026         -17665           4516
   4060.00000000           8841          -8839          -6377          -3901
   4064.00000000         -12083          -5292           1440          18071
   4068.00000000           7890          -7747          -8004           1669
   4072.00000000          -8003           5017           7542         -20976
   4076.00000000          -3048          11332           -551           9663
   4080.00000000           7944           7548          -8724          -5542
   4084.00000000         -36269         -16937          -1299          -6133
   4088.00000000          -9615           3074          22332         -29306
   4092.00000000          23459           -481          -5837         -18306
   4096.00000000         -15684         -14045          -4872           3647
   4100.00000000           7509           3425           -231          -5687
   4104.00000000         -10021          13847         -23685           3281
   4108.00000000          14388            291          18606         -11080
   4112.00000000         -19477           -689         -26094           1289
   4116.00000000          18212          -5276         -13810           2512
   4120.00000000         -12256         -11514          18238          -8052
   4124.00000000         -29098         -23444          -9125         -17737
   4128.00000000           1821         -14303         -11027          -4689
   4132.00000000          11207           3944           5363          -9571
   4136.00000000         -27884          -5756          19869         -15564
   4140.00000000         -19215           8259           7202          -1445
   4144.00000000          -9763          -7574           1571           6769
   4148.00000000         -15145         -13790          -2556         -13935
   4152.00000000          27075          -1112           2997           4311
   4156.00000000         -13564         -14846         -14065          -8698
   4160.00000000         -14808          -7407          -8609          16819
   4164.00000000           2050          -6665         -18209          -8181
   4168.00000000          13224           -392         -13812         -19741
   4172.00000000           1227          -5475          -4514           5844
   4176.00000000         -11427          -7607          11285         -27340
   4180.00000000           3427           5569         -19623          -8385
   4184.00000000           8164          -6731           7514         -12160
   4188.00000000            326          -8138          -1140           5752
   4192.00000000         -16630          -3229           7512          23543
   4196.00000000         -14499         -30183         -14034          -1251
   4200.00000000         -17253           9591          -9306          10695
   4204.00000000          -3174            591           -186          -5586
   4208.00000000         -17280          -6896          10350         -17530
   4212.00000000          11341          -9664         -10908         -21474
   4216.00000000         -12403         -18215         -12274          -7153
   4220.00000000           9371         -19630          -6603          18937
   4224.00000000          11833          21631           5583           8316
   4228.00000000         -20844         -11252         -12544          -6781
   4232.00000000          -6686          -3003          12437           2905
   4236.00000000           2408          -9781          10794          -5059
   4240.00000000          -2116          -4550          16519         -10015
   4244.00000000          -6808          -6345         -21006          13304
   4248.00000000          10364            476         -19143           1916
   4252.00000000         -12418           4864         -13493           3891
   4256.00000000           2671          -9839         -18469         -14038
   4260.00000000          -8531          -8074          -8129           1303
   4264.00000000         -13432          -4138          11198         -10498
   4268.00000000           6087          -4194         -17861          -8776
   4272.00000000          -8506            -94          16048          -8027
   4276.00000000           3201          17977         -10481          15947
   4280.00000000           3452         -14936         -14744           1696
   4284.00000000         -18017          -5768           2475           1827
   4288.00000000           3127           8204          16608         -19797
   4292.00000000          -5219            140           6181           4630
   4296.00000000           2717           2777          23098          -2239
   4300.00000000          -1353           4450         -11413            621
   4304.00000000           4549         -13249           8254          19512
   4308.00000000           2739          11052          10746           1685
   4312.00000000          13948           -428          -7297           7843
   4316.00000000          -2638           3192           3857          10059
   4320.00000000          12788           2747         -10164         -16440
   4324.00000000          14952          -1837            639          -8497
   4328.00000000         -15622           9105          12099            759
   4332.00000000          10847          -8745           2713           3606
   4336.00000000          11967          -6948          20820          11482
   4340.00000000          -6394          -4534          10921           5244
   4344.00000000          -8748           6508          -3479           1494
   4348.00000000           9401           8014          22755          20807
   4352.00000000           7872           3417            508          -1276
   4356.00000000           1021          -5742           3923          10540
   4360.00000000          11428           -249          -3782          -3912
   4364.00000000           -129           7977          -9280          -4636
   4368.00000000          -6650          -5524          -5201           4087
   4372.00000000          -6837          10216            518          -5169
   4376.00000000          -4330           6927          11068           7413
   4380.00000000           8134           2321         -13473          -9775
   4384.00000000           4624          -2969          -1251          -4293
   4388.00000000           5825          15871          24161          16583
   4392.00000000          15860           5425          16199          13886
   4396.00000000          -6334           6879           2909          13055
   4400.00000000           3439           9230          11337           4602
   4404.00000000             67           3696           4385          13988
   4408.00000000          10452          10608           3040           4716
   4412.00000000          -3268         -14852           2107          18214
   4416.00000000            502          -9114           6753          10166
   4420.00000000           9533          -3625          17546          -6573
   4424.00000000         -12853          15118           6246           7171
   4428.00000000           1070           2223           4845           6557
   4432.00000000          -3131          -3507          10997           7620
   4436.00000000           4635           1180           1015           5307
   4440.00000000           -857          13844            714          -3706
   4444.00000000          -2510          15721           3071           4691
   4448.00000000          13020           5788          12461         -12805
   4452.00000000          18846           8652           7503          -5818
   4456.00000000           9265           2977            510           -934
   4460.00000000          -2068         -13630           6247          -1411
   4464.00000000          -2043          -6324           6946           4514
   4468.00000000          -9904           5378           -160          -5800
   4472.00000000           -541           4888           1498          -1723
   4476.00000000           1901           4621           1995           8722
   4480.00000000           4409          16832           6724          -5289
   4484.00000000          15500          17076          -1231          -2814
   4488.00000000           7914          14359          18045           8452
   4492.00000000          -6780          -1238          -8659         -17677
   4496.00000000           -412          14342          10893           4906
   4500.00000000          -3382           8739          13143           2722
   4504.00000000            409          -3896           -444            628
   4508.00000000          18093          -1841         -11376          -2920
   4512.00000000          12895           7408           5394           2934
   4516.00000000           -393          -2827           2793            483
   4520.00000000           -408          18899           9037           8349
   4524.00000000          -6229           1732          -9592          13333
   4528.00000000           2618          -2592           6749          12823
   4532.00000000           2044           2404          -7018           5865
   4536.00000000         -14186           5111         -11975          12114
   4540.00000000           2107          14205          -1577           5482
   4544.00000000          -1146           9601          -1126           2507
   4548.00000000           2678           9394          -5614          -2244
   4552.00000000           2856           6936           6259         -11814
   4556.00000000           3462         -19437           -488           3512
   4560.00000000           3933           9094          -6475           1154
   4564.00000000           -198          -8305           2980           3567
   4568.00000000           9752          -4738          -6397           2175
   4572.00000000          -4079           7082           6327          10235
   4576.00000000           5552           3085           3820           9041
   4580.00000000          -4553           8316          17984           1988
   4584.00000000           6704         -12974          -9988           1128
   4588.00000000           5246           7064           -148          -3714
   4592.00000000             86          -2302         -17081           2374
   4596.00000000          -9045            577           2515          -5204
   4600.00000000          -5201           -413          -3469          -2142
   4604.00000000          -6438             31           4566           -491
   4608.00000000          -6506           3508           4509          10108
   4612.00000000          12928           3296          -2241          -1955
   4616.00000000          12805           5098           8327             67
   4620.00000000           1856            927           3845           1222
   4624.00000000           -561           5761            -82            299
   4628.00000000          -6207          -6690           -116          11368
   4632.00000000          -8206           2099          -2371          -1920
   4636.00000000           -387           -291          -1050           2820
   4640.00000000           5876          12673           5274           -289
   4644.00000000          -7379          -5224           4838           5373
   4648.00000000           -299           4042           5053          -2607
   4652.00000000           7241           6428          15476            -92
   4656.00000000          -1979          -3465          -8025          -7130
   4660.00000000          14591          -2331            -47           1539
   4664.00000000           3003            393          -7734           -993
   4668.00000000           2297           1734          11071           6067
   4672.00000000           6089          -1354          -5834           2355
   4676.00000000           1138          -2706          -3398          12682
   4680.00000000          -7814          -3446          -8095          -4474
   4684.00000000           3494           3385           3462          -4912
   4688.00000000          -6734          -1963         -11715          -2309
   4692.00000000          14925          -7746          -2767          11467
   4696.00000000          10480          -1509            859          -9966
   4700.00000000          -7918           1782           2117          -3633
   4704.00000000          10632            837           3004          -4152
   4708.00000000          -6482          -2553         -11117          -6710
   4712.00000000           1187         -14346          -3504           2469
   4716.00000000          -5008          -1107           5907          -2252
   4720.00000000           -189          -3468          -6280           5126
   4724.00000000            457          -5247           4902            995
   4728.00000000          -8922          -1021          -3214          -1503
   4732.00000000          -1540           4188           -790          -9125
   4736.00000000           3758            -57            753           1148
   4740.00000000           -496          -1656           5667         -14768
   4744.00000000           1561          -1189           8224          -8740
   4748.00000000           1587          -2293          -2795           2582
   4752.00000000          -3707          -2799          -6899          -4291
   4756.00000000          -3360         -12163           2449          -2580
   4760.00000000          -1796            -81          -5932           3329
   4764.00000000          -2355          -8820          -1731          -1820
   4768.00000000            965           -156           2762           -938
   4772.00000000          10204            923          -6432           -682
   4776.00000000          -1754           3357           6762           4232
   4780.00000000          -5767          -2173             35          -1499
   4784.00000000          -8985           -891          -3697          -1899
   4788.00000000          -3268           5827          -5723          -3360
   4792.00000000          -1688          -2509          -2215           1731
   4796.00000000           2898           2461          -8299           6527
   4800.00000000          -4091          -1677          -9049         -10495
   4804.00000000          -7662          -7596          -5888          -8686
   4808.00000000           1822          -1775          -5937            153
   4812.00000000         -10275           5298          -8871          -1079
   4816.00000000           2981          -8840         -12007           2361
   4820.00000000           4663          -2585          -6045           -937
   4824.00000000          -1017          -3169          -6573            876
   4828.00000000           3128           1995           -730          -5236
   4832.00000000           1835           3398           3688           4336
   4836.00000000           3284          -3863           2429          -4202
   4840.00000000            381          -2712           5058           2979
   4844.00000000          -2748          -1030           2384            744
   4848.00000000          -2473           4587           -460          -7036
   4852.00000000           8667          -2245          -5184           1606
   4856.00000000           1158           5375          -3443          -2667
   4860.00000000           2573          -4190          -9067          -1738
   4864.00000000           5042             77            137           2324
   4868.00000000           6548          -2964           -331          -3976
   4872.00000000           3285           2750          -5779         -10288
   4876.00000000             66          -3835          -2660          -6586
   4880.00000000          -2732           2141           1239          -8306
   4884.00000000          -2230          -4764            605            233
   4888.00000000           1254            395           2589             20
   4892.00000000          -3425           1517          -1317           3929
   4896.00000000          -2770            604         -10729          -4225
   4900.00000000          -7019          -6967           6677          -1601
   4904.00000000          -2272          -1379           4950           -615
   4908.00000000           6754          -2616           3055           4695
   4912.00000000          -4203           3481            197           3848
   4916.00000000          -6340          -1518          -5873          -4832
   4920.00000000           -527            701          -6225          -3464
   4924.00000000          -8763          -2201            900            556
   4928.00000000          -4915           4979           1001          -6559
   4932.00000000           6554           -475          -1898           2573
   4936.00000000           1701           2162           5058           -825
   4940.00000000          -5482          -5291            916          -3941
   4944.00000000           4382          -9416           4586           2740
   4948.00000000          -1684          -8689            957           6973
   4952.00000000          -3174           2265          -2505            934
   4956.00000000          -1085          -3153           -981          -2963
   4960.00000000           1894          -1539           1666           2448
   4964.00000000           3100          -2245          -1410          -9799
   4968.00000000          -4015          -2976           -314           5118
   4972.00000000           6305          -1343          -4542           8813
   4976.00000000            -28           8534          -1495          -8080
   4980.00000000           2048          -3755           3240           -645
   4984.00000000           4721          -2829           4065          -3734
   4988.00000000            741           3755          -1331           3852
   4992.00000000           2260           1684          -1996          -2693
   4996.00000000          -5552           4650           4223           6685
   5000.00000000           -674           4350          -7545           -593
   5004.00000000           1171          -3376          -5710          -2762
   5008.00000000           4033           5601           3563          -5076
   5012.00000000          -5432           -941           -888           4053
   5016.00000000          -9387           3376            624           6550
   5020.00000000          -5694          -4759           2330           4635
   5024.00000000           -826           1451            824          -3979
   5028.00000000           2327           2626           -419           2972
   5032.00000000           6566          -1529          -6289          -2821
   5036.00000000          -3451          -1791           -614           4248
   5040.00000000           2069          -2191           2592           1820
   5044.00000000           2958          -2641          -2222           2993
   5048.00000000            337          -1319            542           1474
   5052.00000000           2467          -1310          -5108           3457
   5056.00000000           -142          -6316           2716            267
   5060.00000000          -4646           -119           1621           1181
   5064.00000000           1343           4176          -2580           3485
   5068.00000000           1998           4423           3926           3906
   5072.00000000           2981          -4159            828          -3726
   5076.00000000           4691           5170          -2308          -2037
   5080.00000000           2101          -4619          -4509           1049
   5084.00000000           9286            969           3417          -4428
   5088.00000000           4124           1002            322           1689
   5092.00000000          -2035           4541          -1604           1387
   5096.00000000           6349           -223           6861           6072
   5100.00000000           9634            458           1423          -6317
   5104.00000000          -1700           -596          -1816           4454
   5108.00000000           4996            475          -9329           2887
   5112.00000000           4267          -1516            777            856
   5116.00000000            995           3491           2383          -4705
   5120.00000000           8708           3505           4247          -1702
   5124.00000000           3103           1033          -3035          -1878
   5128.00000000           1152           1047           1895           5086
   5132.00000000           1774            851           2368          -1363
   5136.00000000            653           3750           -986           4666
   5140.00000000           3057           4011             20          -1150
   5144.00000000           4546           -939           3007          -1006
   5148.00000000            428           1901           1323          -2892
   5152.00000000           4551           3368          -5754          -3928
   5156.00000000           1696            129           2912          -1992
   5160.00000000            151           1380           -210           1610
   5164.00000000           2553           6036            197           1013
   5168.00000000          -1017           2079          -4364           -263
   5172.00000000          -1085          -2984           2109           1083
   5176.00000000           4195           1097          -2473           1702
   5180.00000000           2210           2525           1369            917
   5184.00000000           4369            -56            744          -2222
   5188.00000000           3047           1908           5859          -1081
   5192.00000000          -1475          -6004           -781           2327
   5196.00000000          -2294           2188           1708           4043
   5200.00000000           1370          -1532          -1503           2795
   5204.00000000           1734           7272          10592           3699
   5208.00000000           6781          -3555           3019          -1018
   5212.00000000           -914           1614           -105            589
   5216.00000000           4035          -1293           -934             34
   5220.00000000          -2331           3273            913            718
   5224.00000000           4204           4028          -1923          -3668
   5228.00000000          -3605            -74           1611          -7544
   5232.00000000             -5             58           -843          -1800
   5236.00000000           3870          -2443            707           1173
   5240.00000000            993          -2885           4605           1058
   5244.00000000           2986           4303           5707           3064
   5248.00000000           1204            122           1280           5145
   5252.00000000           4572           2681          -6243          -1782
   5256.00000000           1043          -2387          -4509            514
   5260.00000000          -3584           -356           1611           2184
   5264.00000000          -2889           1463           1139           5009
   5268.00000000           1784           -287          -3469          -3517
   5272.00000000           1055           2713           1061          -1259
   5276.00000000            -31           -801            122           -262
   5280.00000000           2973            913          -2667           -546
   5284.00000000            -18            343           5304          -2692
   5288.00000000           1383          -1642           3787           -434
   5292.00000000           3599           -797            597           -572
   5296.00000000           1428           4896          -1967           -137
   5300.00000000           4226          -1674           3522             -0
   5304.00000000           4580           3713           5449           2295
   5308.00000000          -2692          -1838          -1719          -1399
   5312.00000000           1215             92           1389            249
   5316.00000000          -1574           -996          -1527           4728
   5320.00000000           2515           2122          -5701           -628
   5324.00000000          -1306          -2002          -1909          -1939
   5328.00000000          -2775           -680           2393            -15
   5332.00000000           -933           -452           3943           1081
   5336.00000000           -194          -3760          -4115          -2037
   5340.00000000            868            484          -1267          -3808
   5344.00000000           2238          -1236            756           1545
   5348.00000000          -1024           1564          -1375          -2107
   5352.00000000            391            249            -19          -1443
   5356.00000000          -1992            361           3023           -248
   5360.00000000          -4213           1347            834           3084
   5364.00000000          -1614           -328           -222           2668
   5368.00000000            974            612            874           -703
   5372.00000000          -3334            740           2489           1462
   5376.00000000            298          -2082          -1469           -662
   5380.00000000           3124          -3331          -2857          -1499
   5384.00000000           2198          -3777           4130            513
   5388.00000000          -3139           2378           -454          -2325
   5392.00000000          -3956          -1113          -1989          -1251
   5396.00000000          -1601           2362            678          -1785
   5400.00000000            -30           -611           1085            327
   5404.00000000           2353          -1111           2496          -3384
   5408.00000000          -1144           -740           1102          -1979
   5412.00000000            360          -2980          -3942           1855
   5416.00000000           -495           -570            508          -2231
   5420.00000000            571           2362           3672            612
   5424.00000000           1468            255           2122             70
   5428.00000000            318          -6350           1059            300
   5432.00000000            931           1379          -1782           -643
   5436.00000000           3048           1181            462           -552
   5440.00000000             47          -1888          -3995           -595
   5444.00000000            615            -11          -1028           1582
   5448.00000000           2954           2179           -493           1117
   5452.00000000          -1897           1460          -2485           1965
   5456.00000000           -838          -1664             -1           3439
   5460.00000000          -2431           -697          -3819          -2290
   5464.00000000           1512          -4826           2176          -3772
   5468.00000000           1228           1384          -1830          -1683
   5472.00000000            -19          -1439           -251           -788
   5476.00000000          -1344             55          -1551            685
   5480.00000000           1261          -1763           -656           2272
   5484.00000000            144           3320           2683           1500
   5488.00000000          -3185           -541           -642           1338
   5492.00000000           -314          -4695           1367            278
   5496.00000000             23           1370          -2861           -768
   5500.00000000           -503          -1250          -2632          -1069
   5504.00000000           1275            512           -502           -573
   5508.00000000          -5409           4605           1976           1234
   5512.00000000          -1233            188          -3458          -1653
   5516.00000000          -1281           2695           3430          -1397
   5520.00000000           -997           2517           -292            887
   5524.00000000             31          -3521            160          -1074
   5528.00000000          -1612          -2846          -1643              9
   5532.00000000          -1548          -2203           1392           -914
   5536.00000000          -1292           -471          -1575            401
   5540.00000000           -851           -483            -42           2739
   5544.00000000           -609            407           -789          -1849
   5548.00000000           -534           -748           -568          -2578
   5552.00000000           -301             82           1770          -2816
   5556.00000000            310          -2149          -1032          -1488
   5560.00000000           -653           4265          -2734           2912
   5564.00000000           2534          -2596            275           -993
   5568.00000000          -1382            723            107            382
   5572.00000000           -674           3664            663           2546
   5576.00000000            253           1248           -528           2141
   5580.00000000            491           -716          -2467             31
   5584.00000000          -1086           1231           -646           -854
   5588.00000000          -3839          -2930            757          -2782
   5592.00000000           1244            946            551          -1972
   5596.00000000           3257           1478           -492          -1828
   5600.00000000          -1849          -2045           -455           -423
   5604.00000000           1495           -521           -737          -1057
   5608.00000000           -625          -1985           2083            915
   5612.00000000          -2106           1765            614           -753
   5616.00000000            820            110            471           -941
   5620.00000000          -1405           1271           1014          -1307
   5624.00000000          -2790            935           -993          -1874
   5628.00000000           -472           -437          -1555            852
   5632.00000000           -345           1836           2445          -1038
   5636.00000000          -1684            925          -2186           1300
   5640.00000000            224           1462           2438           2093
   5644.00000000           -898           -774           1650           2426
   5648.00000000          -2633            359          -1858            885
   5652.00000000             96          -1875           2262           -938
   5656.00000000            902           -815          -1452          -2450
   5660.00000000            169          -3165            960           1799
   5664.00000000            296           2211          -1069          -1222
   5668.00000000            -45           1820           3745          -1500
   5672.00000000          -1481            485           -117           -734
   5676.00000000            292           1801          -2417            417
   5680.00000000           3491           -155          -2537           1017
   5684.00000000           -345           -509           1728           -194
   5688.00000000          -2372          -1362           1279             25
   5692.00000000           -457            325            915          -1018
   5696.00000000           1344           -250          -1810           -114
   5700.00000000            778            821           1446            296
   5704.00000000            655             14           1051          -4687
   5708.00000000          -1014          -1823          -2250           -174
   5712.00000000          -1445            736           -160           -183
   5716.00000000          -1619          -1409           -620           -673
   5720.00000000           -934           2092           -281           2074
   5724.00000000            556          -1648           2746           2234
   5728.00000000            605            483           -948           -458
   5732.00000000           2530           1207           2290           1682
   5736.00000000           -308            858           -134          -1131
   5740.00000000           1250           -768           -171           -920
   5744.00000000           1402           1194           1581          -1432
   5748.00000000           -745            355          -1039           1411
   5752.00000000          -1101           2686           2187          -1692
   5756.00000000           1287           -938            293           -273
   5760.00000000           1596           3271           2332           2874
   5764.00000000            311           -469           1662          -2162
   5768.00000000          -1744            278           -424             66
   5772.00000000          -1848           -822            963           1400
   5776.00000000           1652           1458           1127           1348
   5780.00000000           1249            481            960          -1312
   5784.00000000           -517           1742           1422           -844
   5788.00000000           -319          -1771            967          -2452
   5792.00000000           1165          -2114           1243           -545
   5796.00000000          -2547          -1406           2303           -153
   5800.00000000           -516           1184          -1458            687
   5804.00000000          -1033          -1261           -846           -431
   5808.00000000           -260           3672           1611          -1142
   5812.00000000           2681            810            366           -280
   5816.00000000           1041            232           -559           -238
   5820.00000000           -650            623            979            873
   5824.00000000           -227           1583            389            321
   5828.00000000            887           -627           1943          -1076
   5832.00000000            163            144             54           -279
   5836.00000000             52          -2139            315             21
   5840.00000000           -864            138          -1528          -1667
   5844.00000000            107            499           1722            331
   5848.00000000           -128          -1226            904          -1382
   5852.00000000           -504          -1613           1230          -1385
   5856.00000000            511           -812           -162            508
   5860.00000000           -446           -140           -599            832
   5864.00000000            780            958           1130          -1890
   5868.00000000           2764          -1045          -1391          -2430
   5872.00000000           1842           1629           -523          -1337
   5876.00000000            487            581           1049           2253
   5880.00000000          -1201            112           1223           1040
   5884.00000000            482            360           1347          -1294
   5888.00000000           -409           1156           1336           1636
   5892.00000000           2574            881           -439          -1358
   5896.00000000          -1100          -1235             58            234
   5900.00000000            -38            247           -518            139
   5904.00000000            345            963            755            223
   5908.00000000          -2269           1452           1851              3
   5912.00000000           1852            132             36           1425
   5916.00000000            301            493            962          -1122
   5920.00000000           1519           -526            835           1520
   5924.00000000           1233            197            320            739
   5928.00000000            198           1928           2066           1494
   5932.00000000           1192            149           -446          -2252
   5936.00000000           -119            425           1332           -680
   5940.00000000           1090            640           1474           -107
   5944.00000000            155           1359           1197           2071
   5948.00000000           -333          -1285          -2391            482
   5952.00000000            597          -1738            368           1675
   5956.00000000            234          -1009            475          -1179
   5960.00000000            414            175          -1536           1970
   5964.00000000            286            300            930           2275
   5968.00000000           1448            943          -1400           1962
   5972.00000000          -1713            337           -604          -1673
   5976.00000000           1018           -199            186           1069
   5980.00000000           -335          -1774          -1181           -520
   5984.00000000           1537             32           -239           1073
   5988.00000000           1297           -582            226             13
   5992.00000000            518             38            467            393
   5996.00000000           1568           -796            212            948
   6000.00000000          -1093          -1059            669           -192
   6004.00000000           -170           -331           1984           -564
   6008.00000000            835            -59          -1209           -166
   6012.00000000           1687           -484          -1846            872
   6016.00000000           -968           1034           2059           1515
   6020.00000000            345            370           1367          -1410
   6024.00000000            -76              3             19             44
   6028.00000000           1189           -952           -189          -1036
   6032.00000000           -670           -938            430           -127
   6036.00000000            208            191           -580          -1904
   6040.00000000          -1589           -835          -1098            606
   6044.00000000           -900          -2176           1660           1520
   6048.00000000           -488             66             14            853
   6052.00000000            -22           1429          -1067            586
   6056.00000000            123            490           -918           -805
   6060.00000000           2227          -1478          -2345          -2280
   6064.00000000            435          -1774           -669           -813
   6068.00000000           -422            -71           -323          -1111
   6072.00000000            265            701           -830           -220
   6076.00000000           2635            835            854          -1610
   6080.00000000           1981             73           -954            263
   6084.00000000            112           -133           -239           -904
   6088.00000000          -1925            130           -449           -253
   6092.00000000            290            105           -121           -483
   6096.00000000           -192           -520           -807            976
   6100.00000000           1299           -190           1263          -1290
   6104.00000000           -896            848           -765            827
   6108.00000000           -523            247            863             83
   6112.00000000           -236           -581           1192            106
   6116.00000000          -1234           -598           -538            296
   6120.00000000            408             50            571            725
   6124.00000000           -155           1576          -1136            776
   6128.00000000           -460           -733            124            593
   6132.00000000           -325          -1477            481            -27
   6136.00000000            241            814           -810           -845
   6140.00000000          -1398           1217           -514           -478
   6144.00000000           1348           -593           -829            370
   6148.00000000           -849           -795           -564           -900
   6152.00000000           -398           -530           -388           1399
   6156.00000000           -282           -322          -1383           1511
   6160.00000000          -1267            838            -95           -940
   6164.00000000           -624            184          -1280          -1096
   6168.00000000           -885           -242            254           -595
   6172.00000000             47           -780            -12           -408
   6176.00000000           1491           -206           1796           -494
   6180.00000000           -665           -914           -933           -525
   6184.00000000           -782            562            293           1389
   6188.00000000          -1178           -846           -802           -807
   6192.00000000           -792           -167            941            544
   6196.00000000           -776          -1489           -536           -274
   6200.00000000            889           -242          -1561           -849
   6204.00000000            497           -654           -620           -524
   6208.00000000           -114          -1541           -193            372
   6212.00000000           -475            835            645           -865
   6216.00000000            371           -487            473          -1150
   6220.00000000           -616            631            689            165
   6224.00000000           1070           1017          -1392            176
   6228.00000000            381             38            256            657
   6232.00000000          -1067            302            715           -325
   6236.00000000            193           -386           -924           -413
   6240.00000000           -460           -192            247           -680
   6244.00000000           1490           -705           -461           -542
   6248.00000000           -624            969            299            332
   6252.00000000           -514            226            318             45
   6256.00000000              6            678           -721            495
   6260.00000000           -324           -200            373           -672
   6264.00000000           -798           1068           -348           -749
   6268.00000000            363             40            -66             -8
   6272.00000000          -1007            968            298            380
   6276.00000000           -138            166            684           -200
   6280.00000000            332           -291          -1079           1427
   6284.00000000            412            556           -342           -391
   6288.00000000            -51             68           -333            -51
   6292.00000000           -998           -435            300           -910
   6296.00000000            -86           -738           -210            911
   6300.00000000            715          -1303           -266           -814
   6304.00000000           -174            495           -537            168
   6308.00000000            279            -40           -375             47
   6312.00000000            644           -439            -39              4
   6316.00000000           -742            572            331           -332
   6320.00000000            146            -80           -400            251
   6324.00000000            169            -83            320            311
   6328.00000000           -115           -393           -204             10
   6332.00000000            679            479           -159            -49
   6336.00000000            320           -351            362            101
   6340.00000000          -1315            792           -317          -1258
   6344.00000000             81             36           -121           -397
   6348.00000000            464           -124             48           -456
   6352.00000000           -369            379            721           -927
   6356.00000000            613           -210           -464            787
   6360.00000000           -206              1           -351           1065
   6364.00000000            193            210           -310           -653
   6368.00000000           -326           -583          -1518            311
   6372.00000000            187            274            -62           -274
   6376.00000000          -1147           -126            336            913
   6380.00000000           -456            -60            536             -4
   6384.00000000           -689           -500            457            422
   6388.00000000            782           1017             42            -64
   6392.00000000            561            356            104           -519
   6396.00000000           -267           -623            714           -111
   6400.00000000          -1431           -994           -213             42
   6404.00000000            495            758           -611            347
   6408.00000000             79              9           -149            198
   6412.00000000           -529            530           -594           -148
   6416.00000000            398           -402            807            362
   6420.00000000             63            221            564           -377
   6424.00000000           -199           -588           -254            -16
   6428.00000000            913             43            185            323
   6432.00000000            -99             71           -303            728
   6436.00000000            359             54           -265            338
   6440.00000000           -183            406           -322          -1375
   6444.00000000           -646           -275            295          -1463
   6448.00000000            830            408            220           -266
   6452.00000000           -407           -506           -708            902
   6456.00000000            542           1018            -42            714
   6460.00000000           -542            257            -59           -632
   6464.00000000            740            612            776           -650
   6468.00000000           -197            841            -83            -66
   6472.00000000            177           -292           -536            141
   6476.00000000            291           -439           -116            146
   6480.00000000            387           -443           -221             73
   6484.00000000           -683            -38           -254           -415
   6488.00000000           -814           -250           -130            532
   6492.00000000           -542            432           -452            728
   6496.00000000            319            254            851            768
   6500.00000000            213           -311            -52            543
   6504.00000000            720           1214            674             -3
   6508.00000000            294            -71           -147            281
   6512.00000000            704           -336           -270            602
   6516.00000000            670            -12            318            318
   6520.00000000           1268           -828            267             13
   6524.00000000             87            862           -215            164
   6528.00000000            -81            -95            703            252
   6532.00000000           -317           -398            -79            -82
   6536.00000000            290            907            773           -454
   6540.00000000            589           1220            -63           -120
   6544.00000000            620            -80            444           -105
   6548.00000000            100             79           -368            685
   6552.00000000           -406             65           -656            -46
   6556.00000000            794             89            523            276
   6560.00000000            532           -446           -243            347
   6564.00000000           -394             28            121            373
   6568.00000000            -49             31           -638            242
   6572.00000000           -525            173           -173           -971
   6576.00000000           -471           -362             67            286
   6580.00000000            324             90            507            -84
   6584.00000000            -82           -523            581           -695
   6588.00000000            275            611            493             40
   6592.00000000            401            835           -779            242
   6596.00000000           -117            344           -269            435
   6600.00000000            -32             32           -194             20
   6604.00000000           -502           -365           -673             39
   6608.00000000           -133            258           -362            255
   6612.00000000           -227            680           -683           -381
   6616.00000000           -206            324            247           -579
   6620.00000000           -101            257            355            511
   6624.00000000           -332           -512           -543             -2
   6628.00000000            -69            646           -550            -76
   6632.00000000           -529           -443            165            -98
   6636.00000000            603           -416           -293           -453
   6640.00000000            573           -344             -3            466
   6644.00000000            208           -369             56            227
   6648.00000000            153           -416             54           -742
   6652.00000000           -148           -672           -542           -127
   6656.00000000            238            117           -146           -162
   6660.00000000           -273           -352           -332           -325
   6664.00000000            -49            190           -316           -206
   6668.00000000           -390            617          -1000           -595
   6672.00000000             16           -249             -3           -257
   6676.00000000            452           -193           -292           -197
   6680.00000000             62             96           -224           -392
   6684.00000000            337           -104            115           -365
   6688.00000000            -71             37             -6            -73
   6692.00000000            271           -397           -323            647
   6696.00000000           -735           -290           -136           -594
   6700.00000000           -104            596           -454            -17
   6704.00000000             59           -513           -524           -635
   6708.00000000              9           -375            429            218
   6712.00000000            674           -313            560            418
   6716.00000000            -54           -419           -190            -49
   6720.00000000            495             35           -387           -171
   6724.00000000            -40            215           -408           -617
   6728.00000000           -311            102           -887            290
   6732.00000000           -119             49           -404           -124
   6736.00000000           -384            356           -331             34
   6740.00000000            308            -72             72           -995
   6744.00000000           -226           -193           -120           -212
   6748.00000000           -257           -104           -165            246
   6752.00000000           -241           -283           -672            326
   6756.00000000             66            714             -1            -69
   6760.00000000           -404           -118           -131            414
   6764.00000000             31           -670            117           -235
   6768.00000000           -285           -290           -193           -367
   6772.00000000            610            -38             10            -70
   6776.00000000            445           -162            -53            208
   6780.00000000           -278            350            -50            310
   6784.00000000            151           -185           -324             21
   6788.00000000            421            135            204           -471
   6792.00000000            563           -215            356           -397
   6796.00000000           -659             43            178            445
   6800.00000000            483           -516           -518            -72
   6804.00000000             78            186           -101           -181
   6808.00000000            117           -190           -407             24
   6812.00000000            -27            -15            435           -149
   6816.00000000            -36            244            -73            449
   6820.00000000           -404            251           -388             94
   6824.00000000            120            119           -566            515
   6828.00000000           -773            210           -852           -201
   6832.00000000            -66            192             61           -320
   6836.00000000           -194            259             -8            -36
   6840.00000000           -122            428           -291            -69
   6844.00000000            349           -537             37           -288
   6848.00000000           -263           -516             57           -206
   6852.00000000           -157           -118            450           -541
   6856.00000000            -24             91            -38            456
   6860.00000000            469           -286           -666            321
   6864.00000000           -195           -473           -148             44
   6868.00000000           -243           -182            -56            229
   6872.00000000            316            350            239           -411
   6876.00000000            281            -97           -170           -225
   6880.00000000           -379           -418            106            111
   6884.00000000           -197            392            516           -242
   6888.00000000             58           -177            371            295
   6892.00000000              5            -59           -145             30
   6896.00000000           -242             43           -145            111
   6900.00000000            105           -648           -263            160
   6904.00000000            -47           -250             69           -157
   6908.00000000           -345           -505           -287           -159
   6912.00000000            449            476            368            -37
   6916.00000000           -546            -29           -135           -125
   6920.00000000            138           -324            175            255
   6924.00000000           -232           -419             15             11
   6928.00000000           -272            165            -87           -130
   6932.00000000            489           -348            415            523
   6936.00000000             54            184             24            260
   6940.00000000            -30           -575            107             54
   6944.00000000            369             17             54            -13
   6948.00000000            641            -86            143            126
   6952.00000000            -26           -119            -28            279
   6956.00000000            -27           -107            184            222
   6960.00000000           -215            243           -102           -251
   6964.00000000           -303            177            -56           -106
   6968.00000000             91            398            -85            172
   6972.00000000           -212            -17            138           -743
   6976.00000000            650           -238             32           -102
   6980.00000000           -156             15            199            265
   6984.00000000            -85             81            379            124
   6988.00000000           -297             47            304           -406
   6992.00000000            267            528           -246            272
   6996.00000000             58             25            -70             49
   7000.00000000            112            -97            429            223
   7004.00000000            252           -304           -144            100
   7008.00000000            259             -9            -21            276
   7012.00000000            119             70            173            157
   7016.00000000           -458            197            304             91
   7020.00000000            253            107            269            134
   7024.00000000           -234            246            336            -65
   7028.00000000            125              2             26            101
   7032.00000000             21            333           -586            366
   7036.00000000            430             24             76            408
   7040.00000000            409            111           -230           -136
   7044.00000000             37            329            170            187
   7048.00000000            129             48            342            105
   7052.00000000            105             37             17            235
   7056.00000000           -420            285             45             29
   7060.00000000           -179             88             25            105
   7064.00000000            131            167              7           -180
   7068.00000000            335            219           -370            -77
   7072.00000000           -113           -144            262            289
   7076.00000000            202           -145            -32            441
   7080.00000000            391            190              3            -15
   7084.00000000            -31            221           -354             43
   7088.00000000           -148           -128            154            281
   7092.00000000           -167           -349            419            165
   7096.00000000              6            -35           -236            212
   7100.00000000            -75            389            -13            399
   7104.00000000            110            274             23            351
   7108.00000000            -74           -429           -224           -273
   7112.00000000           -134            119             21            -17
   7116.00000000            266             -0             86           -241
   7120.00000000           -255           -511            121            118
   7124.00000000              5            443            104           -122
   7128.00000000            -95           -107           -134            200
   7132.00000000           -162            326            -26            -98
   7136.00000000            -17           -442            174            342
   7140.00000000             53            129            268             36
   7144.00000000            189            117           -126            -68
   7148.00000000           -231             38           -144            130
   7152.00000000            173            178             18           -158
   7156.00000000           -327            337            411             75
   7160.00000000           -156            -89             14            281
   7164.00000000             67            -25            149            219
   7168.00000000           -204            -65            155            342
   7172.00000000           -316           -112            194             32
   7176.00000000            120            262            -96            267
   7180.00000000             73            -20            106            244
   7184.00000000           -173             35            209            462
   7188.00000000            -10           -219           -232            160
   7192.00000000           -385           -189             -9            163
   7196.00000000            168           -178            125           -155
   7200.00000000            124            297            181            297
   7204.00000000            148            224            115           -281
   7208.00000000            -13            -15            134            236
   7212.00000000              7           -141            181             81
   7216.00000000            353            103            282             40
   7220.00000000           -149           -308            263           -128
   7224.00000000            333            300           -190            232
   7228.00000000            222           -241             23           -192
   7232.00000000             41            -11           -193             55
   7236.00000000             96            168             36             23
   7240.00000000            327             29             65           -322
   7244.00000000             -4           -187            215             17
   7248.00000000            235            153           -197           -143
   7252.00000000            -17           -111            106           -270
   7256.00000000             14            -28             64            -60
   7260.00000000            123            -73              2           -236
   7264.00000000            250            139            194            -36
   7268.00000000             47            247           -141           -189
   7272.00000000            -20            -52           -257           -143
   7276.00000000            344             62            169            218
   7280.00000000            -20            109            169            -42
   7284.00000000           -127            188             67            -50
   7288.00000000           -328            -99           -288            430
   7292.00000000           -195            -31             64           -263
   7296.00000000           -116           -173             76            -94
   7300.00000000            153            178           -390            146
   7304.00000000            104             41           -115           -105
   7308.00000000           -141            133           -124            175
   7312.00000000            133            167            140           -157
   7316.00000000            206            -56            203            188
   7320.00000000            372           -243            269           -353
   7324.00000000              8            -20            127           -109
   7328.00000000            278            114           -102           -103
   7332.00000000            129           -142             45             -6
   7336.00000000            235           -219            141             97
   7340.00000000            -80             58            171            -56
   7344.00000000             -7            -89            156           -173
   7348.00000000            332             40            -32           -239
   7352.00000000           -217            162           -181             40
   7356.00000000            -39            -38           -184             21
   7360.00000000            -12            139             67           -117
   7364.00000000            221             40            130            -90
   7368.00000000             -3             22           -305           -234
   7372.00000000            144             74           -108            271
   7376.00000000             87             29            119             25
   7380.00000000           -250             -1           -122           -250
   7384.00000000            -73           -164            -16           -237
   7388.00000000            248           -194            109             -1
   7392.00000000           -284           -291            173           -105
   7396.00000000            145            155            166           -138
   7400.00000000            -11           -126            319            109
   7404.00000000             42             72           -185            227
   7408.00000000           -162           -111            110            147
   7412.00000000           -133            122            -30           -226
   7416.00000000           -185            108           -164           -168
   7420.00000000           -196             -4           -149             23
   7424.00000000           -156           -102           -143           -175
   7428.00000000           -151           -172           -135            -65
   7432.00000000            -76           -197           -107           -138
   7436.00000000           -113             57            -12           -245
   7440.00000000           -254             90            291            -36
   7444.00000000            -72            162           -125            265
   7448.00000000           -102           -145           -173            -52
   7452.00000000              4            -56           -204           -195
   7456.00000000            161           -275           -168           -119
   7460.00000000             73            259            -67             -3
   7464.00000000            -18            -24             34            101
   7468.00000000             61           -343           -185             11
   7472.00000000             60            -50              6             30
   7476.00000000            -38           -178             43            -60
   7480.00000000           -275            -42            -49            -56
   7484.00000000           -178           -136            223           -447
   7488.00000000           -197            -10            -66            168
   7492.00000000             26             19           -179            118
   7496.00000000             43           -149              3            256
   7500.00000000            173           -175           -198             56
   7504.00000000           -360           -158            153           -109
   7508.00000000             80            188            180             97
   7512.00000000           -166           -146             71            -29
   7516.00000000            -93              3            -62             42
   7520.00000000            -36           -129            -25            117
   7524.00000000            165            -33              6            -18
   7528.00000000            128           -280           -107            -16
   7532.00000000            116            204             52             80
   7536.00000000             67             -6            -17              0
   7540.00000000           -263             65            -87            -88
   7544.00000000           -214            -31            -72           -141
   7548.00000000           -219            205           -158             77
   7552.00000000            156              6            108            240
   7556.00000000            164             51           -207             53
   7560.00000000           -133            -13             48            -30
   7564.00000000            -57            -99            212            -27
   7568.00000000            -42            287             -8            291
   7572.00000000             86            111             29              7
   7576.00000000            -11           -164             30             -1
   7580.00000000           -185            -74             27            233
   7584.00000000            -45            -26             23             90
   7588.00000000           -161           -161           -172             72
   7592.00000000            -69            159             34            -66
   7596.00000000             61            -22           -103           -107
   7600.00000000            -67             -4            -91            118
   7604.00000000           -243           -234             65            116
   7608.00000000           -134             26           -184            -49
   7612.00000000             -5            -94             34            -12
   7616.00000000           -152            268           -149           -185
   7620.00000000            -74             99            -65            -35
   7624.00000000           -211            -90            141            -86
   7628.00000000            -18             64              7            -37
   7632.00000000            -99            322             35            -43
   7636.00000000             -5             15             37             65
   7640.00000000            -96           -362           -136            129
   7644.00000000           -119            113            -91            127
   7648.00000000              4            -40            194             50
   7652.00000000           -204             55            -27             74
   7656.00000000           -100            205           -238            155
   7660.00000000             63            -45             47            -72
   7664.00000000              3             82             -8           -181
   7668.00000000             94            -52            -81            162
   7672.00000000            -19             63            158            -81
   7676.00000000            119             72             42            -30
   7680.00000000            227             77             98            -21
   7684.00000000           -111             -2            208             61
   7688.00000000             79            184             59            -50
   7692.00000000            165             -6             67            246
   7696.00000000           -194            175             -4           -241
   7700.00000000            130             43           -121            -61
   7704.00000000            -34            -31            121             73
   7708.00000000            184            221            116            190
   7712.00000000              0             26            129             14
   7716.00000000            -70             62             20            -50
   7720.00000000            -85             94           -191            -17
   7724.00000000            231            129             59            124
   7728.00000000             14             45            -31           -184
   7732.00000000            121             43           -133             17
   7736.00000000             63            -10             62             36
   7740.00000000           -120             37              7            151
   7744.00000000             65            -24             47             85
   7748.00000000             25           -111             14             48
   7752.00000000             33             53             30            126
   7756.00000000            -13           -181             14             97
   7760.00000000            117            -64            -67            -80
   7764.00000000             53           -142            -39           -177
   7768.00000000            -11             26             11             56
   7772.00000000             98           -145             26             81
   7776.00000000           -141           -143           -132            -44
   7780.00000000            -26            -71             22           -171
   7784.00000000             56            109             93             36
   7788.00000000            -40            -24            -36            117
   7792.00000000            -58            -60             28             30
   7796.00000000           -135             78            -85             -8
   7800.00000000            -91            -35            122             -2
   7804.00000000            -59            264            -95            -18
   7808.00000000            271              3             41             34
   7812.00000000            -25             50           -107             67
   7816.00000000             55            145            -59           -107
   7820.00000000           -105            163             47           -142
   7824.00000000            -54            -63            -60             67
   7828.00000000            205            -95            -21            -19
   7832.00000000             57           -195           -221            -16
   7836.00000000             16             98             94             52
   7840.00000000             59            -46             74            139
   7844.00000000            -40             28            -77           -107
   7848.00000000            134            -98            -72            -76
   7852.00000000            -27            152            -40            -16
   7856.00000000            251           -109            -81            119
   7860.00000000             30            198            -66             11
   7864.00000000            -12            -86            -39              7
   7868.00000000             48            -13             23            156
   7872.00000000            -46             95            -54            183
   7876.00000000             61            -75             47             90
   7880.00000000              4            -32            -16             88
   7884.00000000             84             83            -65            -47
   7888.00000000            -15             10             94            -38
   7892.00000000            -84           -126             56            -53
   7896.00000000            -48              7            179            -72
   7900.00000000            -42            -10             84             74
   7904.00000000            -50             -8            122             50
   7908.00000000             50              1            -30             84
   7912.00000000             54             35             49           -109
   7916.00000000             33            -23            101            -79
   7920.00000000             91            -68            163             18
   7924.00000000            -30             15            -17           -108
   7928.00000000            -61             43            -84            -80
   7932.00000000             44            104            -99             96
   7936.00000000             24            -51             47             13
   7940.00000000            -31            -14             23            -11
   7944.00000000             16             42            -91            146
   7948.00000000           -127            -73            -86             17
   7952.00000000            -19             42             52            -45
   7956.00000000             80            -11             25            -70
   7960.00000000             24             62             26            -46
   7964.00000000             53           -155            -55             75
   7968.00000000            -12            -53             28            -25
   7972.00000000            130             11             45            -14
   7976.00000000            131            -73            -16             44
   7980.00000000             -3             61           -147              1
   7984.00000000            125            -33            -82            -39
   7988.00000000             44             35             88            138
   7992.00000000            -12           -100           -100           -149
   7996.00000000             78            -53             -3             89
   8000.00000000            -23            -20            -17             12
   8004.00000000            -91            -65             16            -68
   8008.00000000            -92            -53             62            -68
   8012.00000000             33             96             22              2
   8016.00000000             91             13             13           -124
   8020.00000000             57            -54            -31             -9
   8024.00000000            -50             35           -104            -73
   8028.00000000            -31            -55              7            -12
   8032.00000000            -72            -30            -44            -20
   8036.00000000           -112            -15             38            -21
   8040.00000000             18             41            -44             43
   8044.00000000            -45            -54             93            -20
   8048.00000000             51             21            -12           -150
   8052.00000000            -58             12            -28            -15
   8056.00000000           -162            -78             11              4
   8060.00000000             -7            -53           -100            -37
   8064.00000000            145            -18              0             26
   8068.00000000            -57            -41            -21             38
   8072.00000000             33             23            127            -42
   8076.00000000              3             30              6            -15
   8080.00000000            -22             -3             16             76
   8084.00000000            -95             24              5            -49
   8088.00000000            -11            207            -13            -84
   8092.00000000            -33           -135            -67             31
   8096.00000000             -7            -57            -10             -3
   8100.00000000            -18            -87             79             -7
   8104.00000000           -103           -158            -50             32
   8108.00000000             32            -18            -47            -81
   8112.00000000            -52           -114           -134            -19
   8116.00000000            -48           -119             62            100
   8120.00000000            -50             46           -101           -152
   8124.00000000            -14             35            119             67
   8128.00000000            -15            -20            -12            -72
   8132.00000000             23            -75             54             22
   8136.00000000            -55           -129            -92             41
   8140.00000000              1            -71             45             20
   8144.00000000             13             -1            -24            -45
   8148.00000000             20             -6             52             14
   8152.00000000             26             27            -49             -8
   8156.00000000             16             61            -74             33
   8160.00000000            -81              9           -149             -1
   8164.00000000            -36             -1            -48             52
   8168.00000000             21             24             63              9
   8172.00000000            -57           -126            -15            -18
   8176.00000000           -113             -4             59            -49
   8180.00000000             11            -80            -12            -62
   8184.00000000            -95            -18            -68             64
   8188.00000000             36            124            -25            -41
##PAGE=N=2
##DATA TABLE= (X++(I..I)), XYDATA
      0.00000000      644810900      504427077      441323468      567534033
      4.00000000      617644300      265645390     -411713088    -1083454961
      8.00000000    -1336759154     -986371584     -104297732      945275762
     12.00000000     1651816173     1577567403      694316364     -538665008
     16.00000000    -1398188402    -1453078322     -809444837       27129128
     20.00000000      583166183      699049430      523023287      295412004
     24.00000000      181071774      174938239      118582482     -157319788
     28.00000000     -635660349    -1032877700     -941461600     -225615095
     32.00000000      804888447     1514790471     1431951437      571141723
     36.00000000     -554504980    -1321006095    -1355273997     -737432206
     40.00000000      133060275      765926166      878318930      535308323
     44.00000000       70291101     -181473034     -133684419        3355065
     48.00000000      -36698577     -320609054     -623511441     -631467768
     52.00000000     -201166141      483910586     1025683824     1057623646
     56.00000000      507869423     -349981921    -1029645287    -1144770947
     60.00000000     -643967128      141900585      740181514      833475705
     64.00000000      479197607       -5244329     -280403016     -244405490
     68.00000000      -52110454       36024512     -101008365     -354203218
     72.00000000     -463036149     -238562406      266251310      748217234
     76.00000000      868645380      480602082     -227807756     -849172966
     80.00000000     -997809377     -594516795      106313301      673163302
     84.00000000      799729208      483876114       -4606447     -334430990
     88.00000000     -350333072     -145853162       35814566       26829486
     92.00000000     -151387527     -302008453     -220020446      126010784
     96.00000000      530491137      693642587      440478117     -131506529
    100.00000000     -686596896     -879909106     -578639001       39498219
    104.00000000      594758651      772954467      514326597       29562424
    108.00000000     -348598057     -425393973     -234843212       10606943
    112.00000000      103616158        5103427     -153715233     -171658318
    116.00000000       37203152      358136062      541702778      394852104
    120.00000000      -54379147     -553402941     -768781025     -545700886
    124.00000000       -3195215      523775651      724785055      516214655
    128.00000000       62484577     -340673083     -476296405     -318024320
    132.00000000      -35484514      152230331      130340703      -27585215
    136.00000000     -128770754      -33977466      216828963      411943760
    140.00000000      344010145       -4904319     -424115463     -633236983
    144.00000000     -479316918      -38838145      426264553      648694205
    148.00000000      505500712      103234990     -314474646     -498935683
    152.00000000     -368655702      -59596324      183503366      208908612
    156.00000000       55950121      -88494651      -71940221      100222938
    160.00000000      268290154      262748290       43797015     -279126834
    164.00000000     -492038696     -429772523      -96233915      329947910
    168.00000000      582943474      492863068      120407741     -293978830
    172.00000000     -485154055     -367804999      -69540310      180284623
    176.00000000      241307655      123117385      -34511086      -89504469
    180.00000000       -5024448      139627490      203014271       85491180
    184.00000000     -166214674     -376832078     -371122068     -110626834
    188.00000000      254271250      486681032      433920065      129902751
    192.00000000     -223064464     -423150663     -364625386     -114706127
    196.00000000      153597331      274061138      192887386        5463469
    200.00000000     -119462455      -87434538       55244982      161062642
    204.00000000      103219890      -94803572     -286291860     -310711163
    208.00000000     -119311211      178585948      396736401      389971122
    212.00000000      153601065     -170220963     -386007166     -366112699
    216.00000000     -134468806      142367096      283957415      224740354
    220.00000000       42559640     -107824625     -119465938      -13758976
    224.00000000       94060618       93384029      -33550340     -188832873
    228.00000000     -243322701     -125069763      115800802      320488758
    232.00000000      348889135      155567970     -139799040     -354790989
    236.00000000     -355359912     -148745283      117287168      279968712
    240.00000000      250210715       84781608      -85326896     -143546591
    244.00000000      -74183575       38374795       84618340       14740371
    248.00000000     -114695229     -186995158     -118352686       72897287
    252.00000000      256930373      299263110      149298483     -105223696
    256.00000000     -309050704     -331461163     -160481500       90462157
    260.00000000      261532741      262856648      111658956      -66024456
    264.00000000     -154080471     -111111689       -2514547       70254091
    268.00000000       43298886      -53560639     -131018136      -98544682
    272.00000000       37651770      192906174      248095906      141336194
    276.00000000      -71783341     -259111003     -298001991     -161984134
    280.00000000       66468151      234252219      249218830      118673602
    284.00000000      -54938891     -155731955     -132115114      -30870195
    288.00000000       60961364       65011133      -10269658      -91161032
    292.00000000      -92739413        6044889      142914334      205262945
    296.00000000      134013380      -42431082     -210949656     -255370365
    300.00000000     -146410791       49943233      204444870      230098914
    304.00000000      120688632      -44996388     -155715139     -150311675
    308.00000000      -49460001       54764463       83368562       22934027
    312.00000000      -58275978      -82621221      -15429072       90732164
    316.00000000      152627842      109898758      -21877751     -160999898
    320.00000000     -207934903     -123843031       39673564      183758994
    324.00000000      208237066      109803351      -46613399     -153943949
    328.00000000     -151356259      -52481012       52276285       92986914
    332.00000000       48916768      -27137856      -68937927      -37883641
    336.00000000       46536327      109848933       92743717       -6910174
    340.00000000     -121939634     -171533875     -107787743       32997105
    344.00000000      157141903      185236838       94514841      -40079512
    348.00000000     -138671981     -139257263      -56703994       42630772
    352.00000000       93499172       69466999       -3664183      -59367202
    356.00000000      -47780881       15284269       78030567       75821121
    360.00000000        3707158      -92547933     -136374389      -86249829
    364.00000000       25940180      127123806      149928195       84452140
    368.00000000      -32761784     -118044004     -126172155      -53787223
    372.00000000       38028895       91136389       69774967        2716818
    376.00000000      -52620815      -47807480        7122789       62913734
    380.00000000       61152081        7443633      -72143549     -109114921
    384.00000000      -74894822       13763260       98578788      126368512
    388.00000000       74669016      -23223739     -104101779     -111816787
    392.00000000      -50904123       31332622       79627301       66799073
    396.00000000        8302030      -40227228      -46208662       -2865105
    400.00000000       41561786       53952473       13688205      -45526126
    404.00000000      -83881724      -62517261        6293399       78310008
    408.00000000      103479349       62845944      -18738173      -83601981
    412.00000000      -92546829      -46393085       21491479       65223084
    416.00000000       58673151       14129481      -31416661      -39744961
    420.00000000      -13130151       27334465       41056673       18404337
    424.00000000      -29117955      -59996437      -50757622         127543
    428.00000000       56693303       80079906       52276454      -10473542
    432.00000000      -63418013      -76643227      -40208400       15328454
    436.00000000       55480241       54298717       17216563      -24480912
    440.00000000      -39226273      -21516798       10689569       31015101
    444.00000000       19600386      -12244390      -39128536      -39017390
    448.00000000       -6494887       38696122       61472134       44347849
    452.00000000       -3716040      -50648642      -65381136      -40522378
    456.00000000        9381072       51817187       55213940       24566526
    460.00000000      -20482875      -39985288      -30019159        1439290
    464.00000000       25301361       23502999         711845      -27372982
    468.00000000      -34300468      -13094573       25449659       49451532
    472.00000000       39233638        1163997      -41819309      -58456924
    476.00000000      -36428392        7532109       46576869       51614141
    480.00000000       26852838      -12578892      -39270247      -33120022
    484.00000000       -2856004       21493988       27722649        6957741
    488.00000000      -18242668      -30173781      -13652979       17675135
    492.00000000       38906331       33281814        1681135      -35519403
    496.00000000      -50536160      -32234408        4506919       43267461
    500.00000000       49507430       25850933      -14536167      -38817936
    504.00000000      -35903478       -8165851       18841845       28207976
    508.00000000       12868653      -12206623      -26806665      -15729241
    512.00000000       13197945       34779216       30692104        2132213
    516.00000000      -31781199      -46744576      -29146493        5312560
    520.00000000       37407781       43577022       21390367       -9369559
    524.00000000      -34316233      -32956508      -12310277       15919925
    528.00000000       25029159       10625010       -9282875      -21501251
    532.00000000      -11672540        9202794       25121878       24894154
    536.00000000        2089925      -24245666      -36957335      -28096711
    540.00000000        2062564       29771470       40453562       23700832
    544.00000000       -7775840      -30359645      -32315364      -12884933
    548.00000000       10879973       22812913       14432840       -6660234
    552.00000000      -18962710      -15172844        6471040       18832133
    556.00000000       21118052        5126896      -18385032      -32608824
    560.00000000      -24786794        2366552       29481642       36036183
    564.00000000       22660905       -6435944      -27453999      -31487143
    568.00000000      -12678916        8783438       22519682       18003756
    572.00000000        -812146      -15434320      -13634886       -1654748
    576.00000000       14009757       17754947        6304731      -14384885
    580.00000000      -25064226      -19716107         665076       23373252
    584.00000000       32368172       19623730       -2794770      -24569997
    588.00000000      -30304446      -14989190        6470907       21714541
    592.00000000       20494642        3764266      -12028877      -15320620
    596.00000000       -4971019        7660711       14744169        6989594
    600.00000000       -9951451      -20460457      -19057970       -2865960
    604.00000000       17628575       25329420       18802321       -1723285
    608.00000000      -21159710      -27501115      -15859608        5003628
    612.00000000       19931097       19776542        7254662       -6939128
    616.00000000      -12264035       -5412139        5980832       11594588
    620.00000000        6799351       -5103031      -16012374      -16500259
    624.00000000       -3074211       15050617       24428047       17348943
    628.00000000        -742331      -20884224      -23338076      -15446596
    632.00000000        2213079       18267198       18974284       10285397
    636.00000000       -4970940      -12563839       -9727330        1494987
    640.00000000       10992165        7976363        -756458      -14691806
    644.00000000      -13760571       -3770908       10561697       18499216
    648.00000000       17059242        2813438      -14927309      -23287159
    652.00000000      -16464966        -283825       14028741       19282633
    656.00000000       10755572       -2866666      -11816429      -10603935
    660.00000000       -2865612        5557843       10008061        2515450
    664.00000000       -6382249      -10241528       -5967846        7846254
    668.00000000       17306543       15464882        3018044      -12652069
    672.00000000      -20452721      -14920625       -3714061       11729025
    676.00000000       18095698       12452445       -1158670      -11927731
    680.00000000      -11216700       -5619681        3176400        7841692
    684.00000000        4547752       -3305135       -8522856       -6032073
    688.00000000        3314750       13540862       14203607        5181648
    692.00000000       -9220237      -16142335      -15846487       -4282915
    696.00000000       10106020       17404385       12991357        1746641
    700.00000000      -10435108      -12758768       -7914604         805283
    704.00000000        6778873        4499239       -1921306       -5557005
    708.00000000       -4518817        2875817       10300043       11878440
    712.00000000        3105991       -5940674      -13183849      -13364513
    716.00000000       -4837841        8772837       16202333       13249247
    720.00000000        4889524       -6104325      -11571150       -8586004
    724.00000000          82151        5041834        6016372        1460015
    728.00000000       -4295846       -6025512       -3171675        6158838
    732.00000000        9412323        5492933       -3364182      -12255212
    736.00000000      -14040075       -5548780        6099061       13633967
    740.00000000       14790310        5926457       -5725003      -11986683
    744.00000000      -10826937       -4371192        4009632        7468179
    748.00000000        6286109         208833       -4068553       -1328969
    752.00000000        2532648        6139443        4625013       -1282815
    756.00000000       -7924989      -10475070       -5969570        3132601
    760.00000000       12574466       12548351        6169347       -2047188
    764.00000000      -10581266      -12109785       -5501422        4268788
    768.00000000        9471822        6461532        1664985       -3419072
    772.00000000       -2640697         295868        3927156        3988249
    776.00000000        1016739       -4610078       -8349609       -5728637
    780.00000000        1075012       10037212       10660328        6500075
    784.00000000       -2083586       -9724371      -12466750       -5269608
    788.00000000        1919518        5887888        8617689        3687543
    792.00000000       -2034954       -4666142       -1854153        1101304
    796.00000000        1443916        -501381       -2994063       -5743114
    800.00000000       -4154452         429001        6415663        7999711
    804.00000000        7234697         626111       -8105982      -11514700
    808.00000000       -7813369        1167649        7894026        9387519
    812.00000000        4548732       -1839626       -5086910       -4858260
    816.00000000       -2315007        1703491        1490829        -779495
    820.00000000       -2686735       -4656619        -300721        4253772
    824.00000000        8357303        5286223        -769496       -6648317
    828.00000000      -10113441       -7038863         910815        7507224
    832.00000000        9418146        6477809         428825       -4128172
    836.00000000       -7007037       -4705961        -490537        2936434
    840.00000000        4347911           3972       -2638100       -1307490
    844.00000000        3317404        5175892        3432740        -293135
    848.00000000       -6019171       -9449547       -6051244         742883
    852.00000000        5789330        9470412        8037960         720476
    856.00000000       -6635241       -8115595       -6979081        -106921
    860.00000000        2655478        4185639        2470781        -115323
    864.00000000        -709989         784122        2519763        2095095
    868.00000000          16416       -3834501       -7047343       -5779761
    872.00000000        -308309        5461042        7553196        6646998
    876.00000000        2007063       -5393724       -8764852       -6567599
    880.00000000       -2851609        2634303        4785633        4121607
    884.00000000        -197156         174258       -1048546         -62578
    888.00000000         512215       -1277041       -3603125       -5992738
    892.00000000       -3255546       -1266899        5387080        6658233
    896.00000000        6922337        1420441       -5637380       -8465393
    900.00000000       -5967241       -1217030        2993799        5697151
    904.00000000        5496665        1669860        -685162       -3222653
    908.00000000       -1346644         -15942        1061788        -282979
    912.00000000       -3961823       -2194624         918379        2355201
    916.00000000        5989147        6640988        1457141       -5533767
    920.00000000       -8409169       -7594482       -2773951        4192098
    924.00000000        5841021        7273956        2918785       -1706635
    928.00000000       -3200015       -2929133       -1950205        1576996
    932.00000000        1049405        -336665       -1035093        -316473
    936.00000000        2010259        4534041        5279482         946258
    940.00000000       -2997784       -7001286       -7503470       -3223540
    944.00000000        3288168        7118201        6494870        1822511
    948.00000000       -2525565       -4362148       -4360092       -2606625
    952.00000000         851905        1616376        1285665         252250
    956.00000000         -17964        2114610        2311726        2377060
    960.00000000         725752       -2705284       -5663172       -5974048
    964.00000000       -2990515        1671035        5706352        5807610
    968.00000000        3565917        -562756       -4753504       -5234799
    972.00000000       -2756658        -478097         834297        1911534
    976.00000000        1697006         332664       -1106600        2148214
    980.00000000        1080390         980592       -1430627       -3838436
    984.00000000       -4642670       -1720117        2318947        5222300
    988.00000000        7503943        2889415       -2407541       -3470107
    992.00000000       -5132499       -4069956        -305750        2091970
    996.00000000        3310526        1349875          97817       -1099883
   1000.00000000       -1254665        1069716         452892       -1550741
   1004.00000000       -3085422       -3734406        -108826        2268846
   1008.00000000        4417686        5637797        2196511       -2715698
   1012.00000000       -5002095       -6125789       -3107068        1024311
   1016.00000000        3353966        4134144        1557845        -657688
   1020.00000000          87332       -1190326         404045         -75579
   1024.00000000        -433736       -2383135       -3210908       -1538222
   1028.00000000        1366556        5742740        4724817        3139180
   1032.00000000        -574239       -3250092       -5794223       -3425008
   1036.00000000         671980        3179354        3517987        1752832
   1040.00000000        -402578        -539022       -2313326       -1216788
   1044.00000000        -242973        -881487        -727035       -1853309
   1048.00000000       -1158289        1723589        3739548        4152602
   1052.00000000        2495474        -496695       -3470171       -4927682
   1056.00000000       -2071852           7950        3691046        4575593
   1060.00000000        2925499          38220        -805128       -1420685
   1064.00000000        -927422        -771499        -662205       -1838158
   1068.00000000       -1434864        -165508        1342179        1903577
   1072.00000000        2211133        1898367        -815798       -3132324
   1076.00000000       -4926010       -3325905         978270        3066146
   1080.00000000        5105048        3456383        -187135       -1676853
   1084.00000000       -3112040       -2721714       -1020403          -2021
   1088.00000000         209359        -476381        -153261         235064
   1092.00000000        2394156        2016594        1296398       -2004676
   1096.00000000       -2927425       -3538040       -2886723         819225
   1100.00000000        2635907        4362217        2562584         468673
   1104.00000000       -2299496       -2851969       -2661851        -395803
   1108.00000000         781576        1363726         433667        1470954
   1112.00000000        1249508         903336        1672852         199884
   1116.00000000       -1851780       -3682133       -3392697       -1454006
   1120.00000000        1172739        2610948        4080347        2996138
   1124.00000000         608457       -1785417       -2778621       -2744430
   1128.00000000       -1469858         172675        1599055        1244585
   1132.00000000         908696         629971        1293036         102782
   1136.00000000        -630654        -639137       -2673732       -3627794
   1140.00000000       -1693868         803961        3038187        3880281
   1144.00000000        2833060         465284       -1164616       -3267719
   1148.00000000       -3768094       -1194461         715942        1581105
   1152.00000000         591643         151118        1280510        1395297
   1156.00000000         756473       -1137431       -1445481       -1467575
   1160.00000000       -2595176       -1000908        1915167        3372082
   1164.00000000        4101624        2280804        -866707       -1710940
   1168.00000000       -3079050       -2408005        -686603        1573844
   1172.00000000        2198597        1612195         713906         355689
   1176.00000000         475087         502402        -958095        -800186
   1180.00000000       -2793295       -2301813       -1647143        1559694
   1184.00000000        3377698        3726091        2443850        -267979
   1188.00000000       -1789422       -3484712       -2772245        -767016
   1192.00000000         936775         970585        1297730        1168089
   1196.00000000          68711          37716        -261798         387375
   1200.00000000        -413425       -2248516       -2129054         154891
   1204.00000000        1273073        1887196        2223912         856530
   1208.00000000        -963122       -3049641       -2227111       -2116256
   1212.00000000       -1070750         696298        1700075        1212217
   1216.00000000        1305221         421337           4567         370369
   1220.00000000        -430972        -602657       -1707551         444770
   1224.00000000        -332166        1558757        1871392        2237614
   1228.00000000        1524560        -256854       -2829295       -2190391
   1232.00000000       -2088028        -483007         430532        1566294
   1236.00000000        1307937        1229729         262596         114412
   1240.00000000        -815675         -89552        -488038       -1156303
   1244.00000000          45356        -644484         413959        1681241
   1248.00000000        1766616        1027404        -582935       -2291416
   1252.00000000        -868998       -2422461        -953364        1643648
   1256.00000000        1845769        1529321         455880        -941844
   1260.00000000        -478795        -474664       -1015865        -697712
   1264.00000000       -1220233        -545655         582463        1119411
   1268.00000000        1205972        1688709        -100199       -1736019
   1272.00000000       -1087599       -2780780       -1382592         366838
   1276.00000000        2142755        2086054        1765294         561269
   1280.00000000         -58442        -526753       -1180607       -1282920
   1284.00000000        -829612        -603588       -1139808         796483
   1288.00000000        1630162        1581485        1491173         660577
   1292.00000000       -2133894       -1899198       -1855024       -1018376
   1296.00000000        -672654        1451441        1603506         967510
   1300.00000000         321926        -562900       -1469177       -1124531
   1304.00000000       -1086286         256805        -641676         463318
   1308.00000000         500176        1154680        2227156        1027629
   1312.00000000         372577       -1018919       -1598312       -1366949
   1316.00000000       -1171086          26391         738696        2227936
   1320.00000000        1671248         376393        -332270        -191861
   1324.00000000       -1437010        -566088        -738711        -257148
   1328.00000000          75839         251388        1756120        1514899
   1332.00000000         218188        -632139       -1615552       -2307170
   1336.00000000       -2019820       -1161649         499207        1296472
   1340.00000000        1205835        1284765        -190403        -566321
   1344.00000000        -800864       -1665978        -471974       -1182020
   1348.00000000         -88014         468734         349391        1720981
   1352.00000000         749794         996442        -142173        -886634
   1356.00000000       -2380935       -1573226        -694892         346013
   1360.00000000        2009916        2023799        1143627         735167
   1364.00000000        -793083       -1372207       -1887004       -1045114
   1368.00000000        -352357        -614301         723824         223778
   1372.00000000        1459822         748212         525494         199425
   1376.00000000       -1081484        -924478       -1591972        -993238
   1380.00000000          44090         741661        1017434        1678280
   1384.00000000         238487         331916       -1319040       -1435740
   1388.00000000       -1431917        -796919        -675948         662257
   1392.00000000         470964        1172495        1701706         970749
   1396.00000000        -677766        -902901       -1506439        -401253
   1400.00000000        -456634         465563        1610217        1508259
   1404.00000000        1350676        -109954         187374        -474425
   1408.00000000        -439009        -827307          27244        -845995
   1412.00000000         752029        1401384        1245443         637468
   1416.00000000         156528       -1155673        -421893       -1710737
   1420.00000000        -878293         292893         716979         859862
   1424.00000000        1384940         831296        -456964        -310236
   1428.00000000       -1098355        -719402         471715        -405934
   1432.00000000        1067014         920115         468716         657459
   1436.00000000         560185          20854        -513776        -654759
   1440.00000000        -476520        -736369         -54767          47590
   1444.00000000         444764         401376          -7558        -544315
   1448.00000000        -408758        -531527        -519961        -546447
   1452.00000000        -534185        -635079         489297        1591370
   1456.00000000        1066896        -379045        -187899        -403839
   1460.00000000        -946412        -780243           9113         -24926
   1464.00000000         962437        1135916         816964         524706
   1468.00000000        -543810        -540643        -411285        -704667
   1472.00000000        -575533          40907         877548         329080
   1476.00000000         882057         250974        -188888        -497789
   1480.00000000        -931056        -731135        -365448         136894
   1484.00000000         799459        1404724        1379607         184887
   1488.00000000        -363254        -408435        -610768        -836849
   1492.00000000        -628545          -5210         553839         426562
   1496.00000000         705807         981636        -310396         272072
   1500.00000000       -1263400        -403881        -752174        -109660
   1504.00000000         264871         735898        1080808         894176
   1508.00000000         297200          99770        -625838        -877559
   1512.00000000        -801191        -806769         -73318         789403
   1516.00000000         575846         213820         110255        -176482
   1520.00000000         -46400        -566742        -787138        -767422
   1524.00000000        -201164          82773         839925        1086245
   1528.00000000        1017502        -613187        -650368        -428186
   1532.00000000        -495885        -116627         385522          39442
   1536.00000000          47385         833460         563114         286581
   1540.00000000        -136472        -506200       -1489788        -802563
   1544.00000000        -441054         -50605         203252        1091087
   1548.00000000         879460         799019         625840        -523291
   1552.00000000        -407503        -261174         -66997         256185
   1556.00000000        -189231         561173         615621         265260
   1560.00000000         772701        -262925         299125        -639917
   1564.00000000        -256208        -425170         215518         772854
   1568.00000000        1371420         824370         511420         178788
   1572.00000000        -815387       -1510784        -827401        -251479
   1576.00000000          71754         104515         837166         982810
   1580.00000000         484467         648862          23597          -2743
   1584.00000000        -747858        -849427        -500394        -603556
   1588.00000000         247333         684203         854201         817023
   1592.00000000         315920        -612107        -702240        -638791
   1596.00000000          26268         -28351         980678         886595
   1600.00000000         436682         154705        -361232        -698102
   1604.00000000        -126131        -596076        -545871         175981
   1608.00000000          10819         121680         992850         222018
   1612.00000000         815112         148637        -333500        -385559
   1616.00000000        -646468         -89788        -278154         534350
   1620.00000000         -29892         433434        -238053         218014
   1624.00000000         201469        -186548        -379920        -504714
   1628.00000000        -348583        -482157         290972         286565
   1632.00000000         169113         -16100         197148        -604195
   1636.00000000        -174172        -657289        -427705         243011
   1640.00000000         633138        1023916         298463          35539
   1644.00000000          10506        -592711          82981           -633
   1648.00000000        -224711         856944          -7464        1089981
   1652.00000000         440622         599280          58308          51826
   1656.00000000         -98499        -670589         -63321        -578930
   1660.00000000         115905         520448         493854        -450636
   1664.00000000        -491521          24876          67869        -378789
   1668.00000000         254211        -356544          84701         533927
   1672.00000000         491397         545069         437841         102610
   1676.00000000          62284           5034        -131737        -385012
   1680.00000000         264994         706613         773401         224678
   1684.00000000         213320        -356740        -357277        -315297
   1688.00000000        -188999         106151         352980         277809
   1692.00000000         135429          67805         123033         115963
   1696.00000000         403284        -268629         -99056        -182606
   1700.00000000        -129980        -133312        -432506         405895
   1704.00000000         244306        -415675        -755732        -617793
   1708.00000000         118084         227727         648832          47213
   1712.00000000         662262         458644        -453908        -384775
   1716.00000000         -96419        -102529        -565384        -460043
   1720.00000000        -379521         333118         452838         433753
   1724.00000000         239801         632281         194689        -181813
   1728.00000000          48715         531462        -304479         569872
   1732.00000000         311322         962887         182902         886230
   1736.00000000         277497         418621        -238552         248411
   1740.00000000         123264        -468204         -71891        -280499
   1744.00000000          88019         221803          89336        -326272
   1748.00000000        -233718          28053          48625           4879
   1752.00000000         241507         493336         377792        -149960
   1756.00000000          50513         320025         310143         441968
   1760.00000000        -153590         132269         -86665        -183591
   1764.00000000         -46990         101460         791183        -286950
   1768.00000000          72084        -246822        -292176         169967
   1772.00000000          34274         876705         456929         378040
   1776.00000000         137585          90403        -111735        -271252
   1780.00000000        -102999         208405        -667639        -646691
   1784.00000000           3423          -1969         271299         231115
   1788.00000000         313804        -437348        -755576         -33300
   1792.00000000        -283015         219538         219005         116814
   1796.00000000          91090         214195        -176783          33943
   1800.00000000         491923        -193308         138118         139184
   1804.00000000         205907         -38045         210087         249530
   1808.00000000        -378961        -110190        -243125        -161714
   1812.00000000        -197807          39175         546625         745200
   1816.00000000         122685         334205         188266         233773
   1820.00000000        -485467          81652        -238900         247423
   1824.00000000        -382537          73355         410209         386461
   1828.00000000         476315        -187415         -42218         -30709
   1832.00000000        -198469        -353392          89236          27482
   1836.00000000         310136         331045         146249         295135
   1840.00000000        -816789          86748        -373840        -403654
   1844.00000000          88414         122337         106251        -134604
   1848.00000000         445860         415230         103324        -165959
   1852.00000000        -171023          48254        -187622        -559751
   1856.00000000         131827         383884         188092          88456
   1860.00000000        -130810        -290831        -493671        -524763
   1864.00000000         -21020        -448416         290764         497645
   1868.00000000         339975         266935         426662        -221745
   1872.00000000          20257        -653773        -333253         219860
   1876.00000000         423782          56205         414956         164107
   1880.00000000         254863        -238966        -182200        -618806
   1884.00000000        -139852        -171845        -371168         208506
   1888.00000000        -282402        -113683         250791          83295
   1892.00000000        -134537        -112126        -359464        -605276
   1896.00000000        -196850          17354         130881         561336
   1900.00000000         408040         188152         167099        -215244
   1904.00000000        -551395        -780082         179299         -66706
   1908.00000000         166885         336711         229255         -92820
   1912.00000000         -40882           6720        -175689        -488434
   1916.00000000         -81794        -306844          80456         274514
   1920.00000000         622646         108087         266976         176223
   1924.00000000        -679141        -319769        -441937        -507602
   1928.00000000         255317         301078          72889         134963
   1932.00000000          60118         360611          29754        -143653
   1936.00000000        -570256        -496564        -234554        -179853
   1940.00000000         546573         121858         182312         -58745
   1944.00000000          83567         -10260        -352766        -296801
   1948.00000000        -474961         109899         -10041         473007
   1952.00000000          72249         -22599         292682          86266
   1956.00000000         128489        -768018        -415064          94674
   1960.00000000        -125982         100770         209972         -56393
   1964.00000000         213892         348073          -4937        -392968
   1968.00000000        -541636         115935        -348806         -46398
   1972.00000000        -136094          11810          20257        -125629
   1976.00000000         -46931        -230463        -246575        -319362
   1980.00000000        -340724        -340159         132683         -21365
   1984.00000000          70844        -124677        -207277          10299
   1988.00000000        -486492         141991        -186479          44647
   1992.00000000          53725          89454         479241         111816
   1996.00000000         182534         100880        -222921        -301595
   2000.00000000        -572419        -285949        -163481          76336
   2004.00000000          -4245         250628         380668          52242
   2008.00000000        -120775        -249209        -236353         309417
   2012.00000000        -159517        -132230          -1273         331611
   2016.00000000         231354         313568         106703         240046
   2020.00000000         -88817        -217206        -292531        -175128
   2024.00000000         -30199         290258        -123264          13751
   2028.00000000        -151846        -470461        -170251         -38205
   2032.00000000        -632599        -215160        -368852         -88870
   2036.00000000        -221049         689099         409337          -9058
   2040.00000000        -239440         -90092        -263389        -473375
   2044.00000000        -262520         -59044        -228642         309280
   2048.00000000         -62456          33860          35006        -313579
   2052.00000000        -167413        -204177        -406257         -14213
   2056.00000000         -71706         314869         322158          78402
   2060.00000000          65414         134244         -59109        -116528
   2064.00000000        -128813        -239562         -71350         125533
   2068.00000000         215721          47583        -165703        -117519
   2072.00000000         -43003         -19023         152122        -298994
   2076.00000000        -137403          34759         -85607          21824
   2080.00000000         237928        -184040          -8405        -464563
   2084.00000000        -576702        -320089          81229         -89041
   2088.00000000         255651         261477         153802        -232449
   2092.00000000         152719        -185835         -48695        -160652
   2096.00000000         157622        -507076         -45114        -112127
   2100.00000000         255471        -121424         207527        -103163
   2104.00000000          12987        -131500          11141         -39803
   2108.00000000         -79933         -91794         537273          98699
   2112.00000000         -81245          57728         -58050          49890
   2116.00000000         174570        -297299          63818        -357602
   2120.00000000         353222          -9013          52100         -70526
   2124.00000000         -84939         153541        -213929        -102113
   2128.00000000        -392201         -57439         129737        -115557
   2132.00000000         381483         309502         -97931           4013
   2136.00000000         101533        -141049         113548          36326
   2140.00000000         -99487         125868         300883         361896
   2144.00000000         -11813         247321          84973         170497
   2148.00000000         149682        -247083        -117390        -123243
   2152.00000000          48038         130365         147412         266018
   2156.00000000        -201869         -71187        -408225           1824
   2160.00000000        -269532          50602          99792         172182
   2164.00000000         218067         141052           2876        -189704
   2168.00000000         -73123         109614        -320545        -142114
   2172.00000000        -102557         -15989        -109292         -68875
   2176.00000000        -145747         348100        -100351         111332
   2180.00000000        -110384        -162615          75559         -27424
   2184.00000000         -32086         192879         149334         120857
   2188.00000000         133218        -163204         -86851        -109531
   2192.00000000         -72067        -138069         -47073        -218665
   2196.00000000         234002        -219554        -112050         -10544
   2200.00000000         176921        -117568        -199998        -424803
   2204.00000000          -9701         180628          -2635          27494
   2208.00000000        -127913         349488        -247755          32414
   2212.00000000          96971         -24805        -116599         110413
   2216.00000000          95655         -11720         153815         -95445
   2220.00000000         239005         -76594          31295         130676
   2224.00000000        -230588          15493         128898          -2464
   2228.00000000        -137354         -96358          27893        -220901
   2232.00000000        -347236          90592          75103           6709
   2236.00000000          99222        -152885          53293        -154366
   2240.00000000         104156         -50010         -92965        -171247
   2244.00000000         -19581        -163244         -83294        -214881
   2248.00000000         112587          61087         -52796         173846
   2252.00000000         -19651          57135         210746         166159
   2256.00000000        -121855        -118808          -7340         -50354
   2260.00000000         -27321         -43017         244727          87731
   2264.00000000          67859          21781         190473        -155657
   2268.00000000        -119167          33581          80902          71583
   2272.00000000        -113483         102445         -55102         -55880
   2276.00000000         -14272          67919         -55244         -97246
   2280.00000000          36670        -106714         100994         154481
   2284.00000000         104032         124424        -138403        -150010
   2288.00000000        -260988          98139         -70612         -73228
   2292.00000000         101845          14353         130974        -167823
   2296.00000000        -272512         177221          96158         -70851
   2300.00000000         -54924          24275         103679          -7377
   2304.00000000         168153         -36269          65432         324640
   2308.00000000          31634        -138929         -95754         227336
   2312.00000000        -110335         -94153        -119524         101134
   2316.00000000         335164          53864         285687          55852
   2320.00000000        -248915         -81577        -175323        -114458
   2324.00000000         172587         137366         202081         194372
   2328.00000000         113403         -66467          51539        -112845
   2332.00000000         -20015        -180303          49854          45406
   2336.00000000         -19100          94565         183282        -156218
   2340.00000000         146768         194498         -17956         -41332
   2344.00000000          38117         139038        -128405         -98062
   2348.00000000         171521         236153        -127915          -6728
   2352.00000000        -150229         -34686        -132602         138205
   2356.00000000         153321          65883          10739        -145768
   2360.00000000          59925         100382         159601        -106555
   2364.00000000          26499        -169130         229779         177882
   2368.00000000         134130          68291         201367          35972
   2372.00000000        -118063          -1392          39334        -193172
   2376.00000000           8293        -103053         -22421        -155937
   2380.00000000         -35640         151555         -10396         102131
   2384.00000000          66907         -95241         -54906         -68512
   2388.00000000        -150787        -103300          97474          77913
   2392.00000000         -18446        -147061          41643        -104508
   2396.00000000        -129926          65706         -27020         117071
   2400.00000000          75122          82553          23837           3616
   2404.00000000          70420        -171224         162831          94629
   2408.00000000          88971          -4697          19024         -44006
   2412.00000000         -73751        -196802          92009         136455
   2416.00000000          72026          63154          73991         163160
   2420.00000000        -114770          22137         -95932         -11460
   2424.00000000          -3971         189135         293628          67084
   2428.00000000          16466         200564         -36187        -106053
   2432.00000000         -49236         122118         -34085        -257336
   2436.00000000           2416          26920          43526         -46163
   2440.00000000          49708          61869         -14023          82865
   2444.00000000         120741         108910          61022          84454
   2448.00000000         -42195        -203293         319507         -24274
   2452.00000000          24291         164162           2527         -98643
   2456.00000000          14084          60676         162436          90599
   2460.00000000          33155         201408        -109930          35544
   2464.00000000        -169657          46873         -71320         139177
   2468.00000000        -288881          63142         -60753          -7118
   2472.00000000         195079         210594        -228657        -113517
   2476.00000000          82979         129659        -221595          82104
   2480.00000000         -69798         115830         117012         -15438
   2484.00000000         183769          72295          77571         -75198
   2488.00000000          14488         -72570          -9484          79474
   2492.00000000          73993          27138         -46085         -14195
   2496.00000000          60178         -76867        -177580        -138645
   2500.00000000          67308         126996        -157431         163742
   2504.00000000        -138490         154066         -33307         -60541
   2508.00000000          80321         154141        -133770          11952
   2512.00000000          12864         131497          75896        -108053
   2516.00000000         195718         146824         -72911         220370
   2520.00000000          17759         -52380          99228          90547
   2524.00000000         134560          64116        -128185         101218
   2528.00000000        -121920         -80603        -194410          48063
   2532.00000000          59420        -205804        -121773          92372
   2536.00000000        -204733         159236          95506          -1608
   2540.00000000          39640         -98292         110351        -156540
   2544.00000000        -130722         -11687        -190257          24885
   2548.00000000        -117673         -10776          22451          -5744
   2552.00000000         -37780         100532           2707         189000
   2556.00000000         -75476         146535        -138865         -40243
   2560.00000000          -4965          79583         -36173          65844
   2564.00000000          10158         -18752         132101          85232
   2568.00000000        -136918          -3201        -183024          55061
   2572.00000000         -81726         -70534          83091          89867
   2576.00000000        -171501        -169401          -5241         -36896
   2580.00000000         -57506        -124687         -25873         -80332
   2584.00000000        -120181          47739          82559         154377
   2588.00000000          34592         -13067         108156          55356
   2592.00000000         109739          42650          67169        -135836
   2596.00000000         100789         266425          25670           4688
   2600.00000000          72687          13071          72278         -16261
   2604.00000000           -837         -40037           5552         -16772
   2608.00000000        -106239          49122          96554             60
   2612.00000000          14083        -195590         -43055         -33836
   2616.00000000          19112           4398         111473         -56329
   2620.00000000        -182132          76414           7277         -40105
   2624.00000000         -68949          72352          66410          57924
   2628.00000000         116298         116696         -11243          27246
   2632.00000000          94539            -49          12547         -78501
   2636.00000000          -3593         -14503         155614          38805
   2640.00000000         -74423          47077        -288996        -118092
   2644.00000000          40558         -58496           1522         -14680
   2648.00000000          11040         -14184          28004         143563
   2652.00000000         109030         -17526         182730         -21553
   2656.00000000         -86863          22656          82950           2920
   2660.00000000          42896         124046         -12866         -19138
   2664.00000000         112049         -28147         -53961          53259
   2668.00000000          14859         -24329         -82346         110188
   2672.00000000         -55157         -17530         -81635         -59415
   2676.00000000         -27630         -16401          96993         136859
   2680.00000000         -52110          13357        -128725         153111
   2684.00000000           1187           6805          -1171         -44611
   2688.00000000          -3680         196469         -27420         -13583
   2692.00000000        -131748         -17093        -114993          28720
   2696.00000000         103747          96574         -10968          12392
   2700.00000000          93308         -90100           2297         -32900
   2704.00000000          77388        -111799         -15686          22598
   2708.00000000          68712          90449          62960           2197
   2712.00000000         -23794        -113671          62290          97604
   2716.00000000           2086         -76510         -51745          91921
   2720.00000000         -97968         163122        -121944         -91335
   2724.00000000         168221          90339        -158701         -46597
   2728.00000000        -100959         -63676          90378         -76748
   2732.00000000         -76617           9250         -17566        -100960
   2736.00000000         -22241          -1382          -1232            677
   2740.00000000          -7735         -28203         130586          80980
   2744.00000000          26285          41448        -139344         -65019
   2748.00000000         -86863         -43765          28748         119512
   2752.00000000         -90519          77524         -11094          53694
   2756.00000000          87995         -93751         -89901         -57776
   2760.00000000        -103311          -7280         -80049         -90033
   2764.00000000         -11173          -5331         101893          29268
   2768.00000000          36955         -80879          -5854            556
   2772.00000000           -451         -96219         -37746          43783
   2776.00000000         -18515         -40006          91657         -84714
   2780.00000000          96684           4972          74483          75853
   2784.00000000         107834         -66875         -20024          12240
   2788.00000000         -59463          61467         -70988         128076
   2792.00000000         109946         -50830          41117          16477
   2796.00000000         -74617          13080           9793         -65642
   2800.00000000          78138          60639           5382         -45592
   2804.00000000         100646         -56742          77197          39656
   2808.00000000         -47501         -39941          20588         -78231
   2812.00000000          -1498         -57292          37627          74199
   2816.00000000         -77978        -152371        -186888          23445
   2820.00000000          15187         -12220         -44746         -92840
   2824.00000000          95227           7139          24788         -14802
   2828.00000000          27152          -1260          97476        -106778
   2832.00000000          56618         -51004          27635          -5610
   2836.00000000         -68621          61261           8463         -29996
   2840.00000000         -98123         -30906         -73077          -4353
   2844.00000000         -38077         -62357         -97937           3949
   2848.00000000          -3905           -319          28107         -29051
   2852.00000000         -38902          -7423         -35101          -7962
   2856.00000000         -24043          10552         -11347         -49938
   2860.00000000         -26526          10137        -152514        -151564
   2864.00000000          84429          88584          -4287         -38679
   2868.00000000         -52671         -59030          16791        -128523
   2872.00000000         -90332          78810         -84283           3431
   2876.00000000          70272         -70239          46840          36502
   2880.00000000          22099         -41541         -44228          31012
   2884.00000000         -51801           -881        -163765         -55536
   2888.00000000         -29143         -77503          12855          10584
   2892.00000000         -24398          16522         -13848           4731
   2896.00000000         -44438        -149592         -84995          49306
   2900.00000000           7902         -18223         -19695         -91095
   2904.00000000         -59005          21357         -45487          28142
   2908.00000000          77510          -6513         -25473          42494
   2912.00000000         -58559         -35908          67090         -42375
   2916.00000000         -23866         -18229          12499          29793
   2920.00000000          30091         -46476         -41593         -85958
   2924.00000000          88044         -41599          31673          15586
   2928.00000000        -135348        -102798         -71429          72117
   2932.00000000          20312          22323          -2872         -70898
   2936.00000000           2437         -47199         -26387          71172
   2940.00000000           9955          -3370          61650          67852
   2944.00000000         -45707           6601          20098           -946
   2948.00000000         -52072         -99584          91666         -47707
   2952.00000000         -78351         142003         -56121          12004
   2956.00000000          47103         -50796         -10044         -26267
   2960.00000000         -40075         -12942         -10202           -840
   2964.00000000         -25880          70532          94078          65044
   2968.00000000         -57213          73652           1034          12226
   2972.00000000          -8700         -62186         104601          42595
   2976.00000000         -38835          30801           -304         -29879
   2980.00000000          49357          77696          -4268         157725
   2984.00000000           8837          44485         -36642         -14652
   2988.00000000          37240           3707         -77734        -109385
   2992.00000000         -93240         -96681         -76429         114999
   2996.00000000         -29410          37113          21861        -101349
   3000.00000000         -22843           1965         -67956         -41893
   3004.00000000          31722          53968          18893          21861
   3008.00000000          -9123          34115          57660         -12607
   3012.00000000         129529          37611          75612          77302
   3016.00000000          10434          77152          26844         -66072
   3020.00000000          17502          -7999          12548         -70560
   3024.00000000          29391          64394          40846           7408
   3028.00000000         -50538         -45079          42591          14030
   3032.00000000         -59013          -2838         -51999        -109004
   3036.00000000           5795         -37128          70036          54171
   3040.00000000          61577          49345           -636          71925
   3044.00000000          33970          60595          23356        -103973
   3048.00000000          19322         -45495          41417            158
   3052.00000000         -23411         -69304         -22132          14514
   3056.00000000         -70105          37214          -8679           9754
   3060.00000000         -42140         -14082         -11909           3070
   3064.00000000        -102858         -33985           1933          17150
   3068.00000000          58847         -13563         -23458         -63376
   3072.00000000          35198          15207         -19223          19012
   3076.00000000         -55239        -114981          75945          84238
   3080.00000000         153739          50413         -40457          42507
   3084.00000000         -23179          88065          24716          -4205
   3088.00000000          33476         -58573          23034          49639
   3092.00000000         -25005         -25665          -8175          -5283
   3096.00000000          33850        -142401          -5749          -5428
   3100.00000000         -13077         -60458          77671          25626
   3104.00000000        -124838          82580          16395          57230
   3108.00000000          12974         -15334          24384         -24858
   3112.00000000          52103         -49236          88743          75375
   3116.00000000          37173          49940           -858         -67089
   3120.00000000         -31322          83895          -9078          88593
   3124.00000000          46688         -46884         -35673         -30690
   3128.00000000         -79948          32229          64751          81474
   3132.00000000          68683          49117          39681          63515
   3136.00000000          27560         -14866         -31890         -73525
   3140.00000000          -7940         -71573          78825          32313
   3144.00000000          -6623         -16804          18289         -53085
   3148.00000000         -23470         -40847         -21790          79015
   3152.00000000          42895         -23330         -54679          58480
   3156.00000000           4222          79593          41288          56873
   3160.00000000           4576         -65992          20302          24243
   3164.00000000          37671          53378         -20979           7509
   3168.00000000          -8421         -92970           8045          -3089
   3172.00000000          32118            916          11246          60736
   3176.00000000         -46468          45787          75200          -1840
   3180.00000000         -17176          23884          41902           5647
   3184.00000000         -67964          30469          71542         -60744
   3188.00000000         -56812          19481          33087           5549
   3192.00000000          87178          50939          54009          23839
   3196.00000000          -6297          22110         -50732          77975
   3200.00000000          -6409         -16455         -38992          30337
   3204.00000000         -85438          -8618          47143         -81810
   3208.00000000          -1823         -41677          13804         -88655
   3212.00000000          38671          40756          11177          98167
   3216.00000000         -30592         -13529         -11882          28406
   3220.00000000          12373          13227         -31508           -532
   3224.00000000             -5           3419         127553           6593
   3228.00000000          14189          74282          57746         -66523
   3232.00000000         -22185         -35121          55208          72459
   3236.00000000          69310           6770         -26078          -5430
   3240.00000000         -58064         -22810         -61545          70758
   3244.00000000          -7091          23370         -18646          79916
   3248.00000000          83994         104310          17797          59087
   3252.00000000          -1061         -52142         -35743          -1242
   3256.00000000          46487          10013          49253          11020
   3260.00000000          -2326          32966          16954         -29156
   3264.00000000         -22768          57717           7380          22250
   3268.00000000          -4260          84656          34586           5096
   3272.00000000          -5650         -36915           9016         -27767
   3276.00000000         -42515          43686          17339          34943
   3280.00000000          15888          32305           7868           6506
   3284.00000000           8977          54486           6440           6009
   3288.00000000         -22621         -48269          28749          32336
   3292.00000000         -15367         -25984          -5749         -28375
   3296.00000000          51057          22373         -22383          49820
   3300.00000000         -13209         -62522          19863         -22737
   3304.00000000          14391          47934          28319           1811
   3308.00000000          28438          69922         -22338          39407
   3312.00000000          74716          52545         -23226           7121
   3316.00000000          24395         -52673         -39999         -18331
   3320.00000000          -4292         -48128           -870         -82069
   3324.00000000          32445         -40675          12725         -14224
   3328.00000000          42266          56147          17607         -28065
   3332.00000000         -25985          -2260          58331          27549
   3336.00000000         -31868         -40384          13018          11035
   3340.00000000           2763         -15561          11228          29332
   3344.00000000          30790          27751         -37068         -64576
   3348.00000000          -2138          20948         -26490          26326
   3352.00000000          40026           8855          14921         -21127
   3356.00000000          16140          -4735         -41719          21571
   3360.00000000         -42588          17131         -38065          -4678
   3364.00000000         -31163          -2952         -17400         -51643
   3368.00000000         -35059          33185          -6981          30316
   3372.00000000          27420           6366          41207          57903
   3376.00000000          23961          13230          -5145         -20289
   3380.00000000          55358         -56343           -581         -20075
   3384.00000000         -47824          -6972         -23520         -41214
   3388.00000000         -26669          -2539          24656          42525
   3392.00000000         -31023          22487          -9325          56449
   3396.00000000          19662          11913          60516         -20269
   3400.00000000         -14761          13696          16326          13418
   3404.00000000         -16621          16509          14099         -43702
   3408.00000000         -41617         -12489          56786         -16221
   3412.00000000         -22326          25909         -13527         -16877
   3416.00000000          -7939           5724          33366         -14439
   3420.00000000         -44010          17249           6773         -51090
   3424.00000000         -35320          -6034          69771         -43250
   3428.00000000         -18972          50704         -38731         -16587
   3432.00000000           1202          -1138          -9698          17922
   3436.00000000          10795         -41753           8188         -33980
   3440.00000000           5603          -2434          11687          -4187
   3444.00000000          46234          35201          15238         -29767
   3448.00000000          43308          32686           4351          -5234
   3452.00000000         -18759          19710            900          19960
   3456.00000000          -1111           8795         -91309           -852
   3460.00000000          -4076          32760           9617          15831
   3464.00000000          43090         -24431         -27114         -14441
   3468.00000000           4856          16578         -12713         -11536
   3472.00000000         -31589          -8890         -25464          23424
   3476.00000000           6804           1474         -54628         -47383
   3480.00000000         -26391         -40069         -27783         -60416
   3484.00000000          -3507         -32683         -56000          -8885
   3488.00000000          53065          45813           -726          32242
   3492.00000000         -36139          -4723          42480         -44474
   3496.00000000           1624          26342         -36457         -81745
   3500.00000000         -39641          11502         -59189          -7638
   3504.00000000         -31577         -30617         -25596         -27880
   3508.00000000          23288          32431         -25977         -27356
   3512.00000000         -17391         -36997          -9622          -7269
   3516.00000000          11437          22428          -1665         -66766
   3520.00000000         -33944          11076         -15560           7397
   3524.00000000          53247         -37239          51679         -48164
   3528.00000000          16775          24331         -22502          15762
   3532.00000000           4783         -32231          46106         -34074
   3536.00000000          -9931          22151         -11726          19700
   3540.00000000         -26031         -57714         -17683          25471
   3544.00000000         -38251          49891         -21587         -17254
   3548.00000000          33225          16809          16341         -22782
   3552.00000000          10641          -2222          -2299         -25214
   3556.00000000         -43516            572          -2745          20947
   3560.00000000          17833          -4032         -60047          -2073
   3564.00000000          37722          26703          10218         -12745
   3568.00000000           5440         -58500         -33292           4738
   3572.00000000         -18348           4301         -28056         -48257
   3576.00000000          -4805         -15471         -40800         -30571
   3580.00000000         -15427          41107         -19191         -10954
   3584.00000000         -56021         -25749         -66220           7728
   3588.00000000          32966           6027         -34176          15146
   3592.00000000           1550         -27563          14398          35735
   3596.00000000          30574          -9721         -13966          -9127
   3600.00000000         -25652          34042          -9527         -59132
   3604.00000000         -24295         -22675         -23404          15058
   3608.00000000          29620         -36525         -11904          32425
   3612.00000000          19668         -34872         -23263          -5777
   3616.00000000         -21341          -2074         -59262         -27532
   3620.00000000          17518          22952         -24618          24903
   3624.00000000          16372          -4326         -26347         -14999
   3628.00000000          12955         -28035         -49622           6962
   3632.00000000         -41217         -16727          40249          21583
   3636.00000000         -17471          -8886           2249          -4998
   3640.00000000         -34304         -33362          41394          39459
   3644.00000000           1761          -2504         -40431         -12468
   3648.00000000         -25866          -3500          -7327         -50042
   3652.00000000         -24140         -28030         -43964         -23377
   3656.00000000           8760           3183           8741         -48778
   3660.00000000           8928         -43326           9539         -15205
   3664.00000000           4222          14570         -13195         -12321
   3668.00000000          -5766         -14669          47758          12154
   3672.00000000            -38           6266         -33095          19558
   3676.00000000          22933         -17655          -2347           3125
   3680.00000000         -29430         -62093         -35218          33571
   3684.00000000          23757           5895          36107          30632
   3688.00000000          28562          -1160           4595          -7042
   3692.00000000          11484          -7374         -31717         -28382
   3696.00000000           4238         -25178          11505         -30689
   3700.00000000          50747         -33154         -29367          14541
   3704.00000000          26907         -37419          -8535          12117
   3708.00000000          22839          25237         -11483           7047
   3712.00000000         -26658          49202            855           6146
   3716.00000000          -8745         -25154          14998          14557
   3720.00000000           8661          40314          31823         -18142
   3724.00000000         -12772           5560          10018          47798
   3728.00000000          51565          14404         -27855           -586
   3732.00000000          14587           1887          -3081          72576
   3736.00000000         -23656         -19675          -2872           3818
   3740.00000000           2068          12182          -7542          -9245
   3744.00000000         -18915         -33829          17478          18189
   3748.00000000          27073          23435          20172         -42824
   3752.00000000         -23958          -6446         -31657           9737
   3756.00000000          33260          20698         -15938           1748
   3760.00000000          -1720          31082          60746          38975
   3764.00000000         -35831         -28159           5820           1726
   3768.00000000          32027          15916          35080          15344
   3772.00000000         -18750           2198          15017         -21874
   3776.00000000            889         -20185          23048          -2296
   3780.00000000          24783         -32526         -26493          -9407
   3784.00000000          11882         -18989         -24232           8025
   3788.00000000         -24396           4239          21271          45138
   3792.00000000          23288         -20142         -12392         -17590
   3796.00000000          11317           1730          13805          10141
   3800.00000000         -14170         -36981           3270          11422
   3804.00000000          16110          -1134         -39567         -13930
   3808.00000000          -4463          -9988          29800          36014
   3812.00000000          19029          -9219          -2571         -51307
   3816.00000000         -34137         -11711          10887          13562
   3820.00000000           3065          28618          49706         -12289
   3824.00000000          14707           2287          18735         -22495
   3828.00000000         -15688          -9683          26076          18405
   3832.00000000          13979          35428         -12760         -24118
   3836.00000000         -49402         -21403         -13966          11737
   3840.00000000         -14190           6457          -1675         -13842
   3844.00000000         -10937           2332          -3750           2664
   3848.00000000         -12457          -6004          13468          13362
   3852.00000000          -6760          30988          34327          27670
   3856.00000000          13911          -5708         -21186         -29634
   3860.00000000          17925           6986          61006          16858
   3864.00000000          29457          32707          -1851           9563
   3868.00000000          14049          -8854            243            829
   3872.00000000         -10035          31350          47053          27948
   3876.00000000          -7775          -7412          -4607         -45160
   3880.00000000          -7093          15213          16759          15274
   3884.00000000          11073           1632          12768          19808
   3888.00000000          13426         -14806           3501          -9295
   3892.00000000         -29855          -1743         -34486          33237
   3896.00000000          52525          27209           1988         -17091
   3900.00000000          10514         -20743          -2337           5108
   3904.00000000           6728          11007          27666          26356
   3908.00000000           6803          20272          18943           5881
   3912.00000000            669           7273         -32744          20667
   3916.00000000          17948          25147          46824           4755
   3920.00000000         -14820            495          -4205          21119
   3924.00000000         -12283          12562           8532           3866
   3928.00000000          -1731           1099         -17002          -8094
   3932.00000000             65           4164          11845          11004
   3936.00000000           4078          25201          11754           7461
   3940.00000000         -15956           7696           2196          13550
   3944.00000000           7412           9353          -4291          28865
   3948.00000000         -30141          -4392          21792          -4180
   3952.00000000           -458         -21866         -15649           2261
   3956.00000000         -15738          28477           5007           4310
   3960.00000000           8311         -16911         -12068          -2322
   3964.00000000           3163           6903          10024          13793
   3968.00000000            303          24936            596          18578
   3972.00000000          -7142         -13266          -3860          12421
   3976.00000000          -7916          -8539          33464           1398
   3980.00000000          39396           6921          -8533          -6441
   3984.00000000          -6582           9180         -16305          21751
   3988.00000000           3043           1999           -473          -4962
   3992.00000000          -4608          -5589           5443           1443
   3996.00000000           4852           6859          25946          21524
   4000.00000000         -13603          40360          27450          20070
   4004.00000000         -20021          -9796           3173           2415
   4008.00000000          12178          16929         -15674           1282
   4012.00000000           2125          -6055          -1178         -10259
   4016.00000000          12608          33684          22235          14260
   4020.00000000         -24328          21878           -224         -30037
   4024.00000000          -7469           3600         -12448           4495
   4028.00000000          -2354          16538           7512          25987
   4032.00000000          24489          -2558         -14739         -10713
   4036.00000000         -15421           1507           4670            423
   4040.00000000           6055           3900            -89          -4154
   4044.00000000          13162           1446          14373         -13758
   4048.00000000         -10347          -4920           7831          14345
   4052.00000000           6752          10187          20844            728
   4056.00000000         -12303          -5592           3262           -260
   4060.00000000         -24136         -20849          13373          12421
   4064.00000000         -25167          -2949            -31         -14985
   4068.00000000           3772           2051         -20726          16093
   4072.00000000            607           9602           7465          19319
   4076.00000000         -23546            371          -9723           5276
   4080.00000000          11546           5279          13074         -13902
   4084.00000000          16734           1187           7029          -4812
   4088.00000000          -2076          -7281          10159          29879
   4092.00000000         -12003           9402           7809           5713
   4096.00000000          21177         -12095           6456            758
   4100.00000000           2910           6612          -4913         -10626
   4104.00000000         -11815          15917         -24692          12540
   4108.00000000           4423          -9101          -5626          -1777
   4112.00000000           1542           8763          20273          12612
   4116.00000000          12327         -21838           -962           -248
   4120.00000000          -3551          -2156         -20977          31133
   4124.00000000          -5150          21418          -1722          11454
   4128.00000000           4945          31703           -261         -18553
   4132.00000000         -12204           9258          -3698           8660
   4136.00000000            -11          20834         -14765         -10209
   4140.00000000           3342           1868          -1481          11742
   4144.00000000          -8582           1765          -1401          11722
   4148.00000000          15987          13138          10023          -4172
   4152.00000000          14641         -11449           4321          -5670
   4156.00000000          14327           9357         -23267           8191
   4160.00000000         -31010          -4373          -9343         -13734
   4164.00000000         -11558          14511          -8134           9946
   4168.00000000          -2073           -981          -2687          -3592
   4172.00000000          -8169          -7708          20783          -9136
   4176.00000000          -7572         -15183          13913         -20465
   4180.00000000         -10087         -17400          22460         -10175
   4184.00000000           -539            616           6205          -2810
   4188.00000000          11372          -2389         -12721           1576
   4192.00000000          11915         -11875          12339          17285
   4196.00000000          -7709         -31785           1211           1736
   4200.00000000           5404         -15654          -5096          13041
   4204.00000000           2108           3631          -4075           2678
   4208.00000000          -2683          -2926           8714            216
   4212.00000000          -7048           3372          -3016          -7895
   4216.00000000           4089           9874          10596          -2096
   4220.00000000         -27914          11701           5795         -12074
   4224.00000000           1844          11282           2485         -14132
   4228.00000000            916           6362          13049          -6209
   4232.00000000         -25945            131         -25574           1540
   4236.00000000          -4742          -5983          -3162          -9965
   4240.00000000           7607          34101            -60          -6010
   4244.00000000           4036         -17606         -10147           -624
   4248.00000000          -1619          -9334          10009         -18057
   4252.00000000         -12424          -2110          -7895         -23025
   4256.00000000         -16907          -8837           4950           -172
   4260.00000000          11201            976          -9153          -4284
   4264.00000000          -7676          -9147          -7121           4068
   4268.00000000          -8974           6452         -14701           9945
   4272.00000000         -22299         -17797          -2860          -4651
   4276.00000000         -14677           3921         -17430          -5013
   4280.00000000            -92          -5923         -17822         -13794
   4284.00000000           3364          -6507          -1355           8749
   4288.00000000          -4394         -10664           -492         -18651
   4292.00000000           5055         -10440           4727         -17858
   4296.00000000           4719          -3452          -2550          13992
   4300.00000000          -9614          -1678          -9838         -11676
   4304.00000000         -12588           8136         -10864          -1268
   4308.00000000          -5752           2407          -8343           1047
   4312.00000000           3979          10218            330          -3279
   4316.00000000          -6575         -13520          -3683           6589
   4320.00000000           -550          13078          -7503          -9846
   4324.00000000          -5910         -19593         -18380          -4185
   4328.00000000          -5931          -3463         -18676         -11726
   4332.00000000         -17912           -240           3779          -8056
   4336.00000000             18         -21434           1706         -12409
   4340.00000000          -7043          -6401          17968          10587
   4344.00000000          -9348         -14334          -7072          -8290
   4348.00000000          -4620           5104         -15518           3894
   4352.00000000           6620         -10077            -75         -10255
   4356.00000000          17622          -5609           9878         -15900
   4360.00000000          -8922          -3431          -8568          14168
   4364.00000000           1744          20308          16165         -16349
   4368.00000000          -6829         -17154           2464         -10798
   4372.00000000          -1157          19081         -14235          -4248
   4376.00000000           -960          18035           -974         -20434
   4380.00000000           -269           1171           9004          12855
   4384.00000000          -1410           8562          13180           1096
   4388.00000000          -3702           -523           5137           9765
   4392.00000000          -5156          -4276           5486          -3897
   4396.00000000          -3037          14257         -15114          14759
   4400.00000000          -5270         -16400          -5803           -719
   4404.00000000           1752          18383           2548         -22858
   4408.00000000          -9126            794           2233           2695
   4412.00000000          -4711          -6557            520          -7283
   4416.00000000           2306            456          -9227          15854
   4420.00000000           3661         -13587          -5784         -10682
   4424.00000000          -5650          15642          -3168           2377
   4428.00000000           7547          14382            323           1058
   4432.00000000           4610          12051         -12500          -3834
   4436.00000000          -2551         -10339           4717          -6201
   4440.00000000           -912          -5830            353          -6812
   4444.00000000           2321          14226            429          -2036
   4448.00000000          13876            463          10144           5575
   4452.00000000         -18680           2933           4145           3128
   4456.00000000           -959          -7252          -5942           4609
   4460.00000000          -2901          17057          -2798          -7967
   4464.00000000          11226          -2697          -4513          -3231
   4468.00000000          10457         -12159          -4945          -7547
   4472.00000000           1246            165          -5498           -193
   4476.00000000           5907            220          10545          -8879
   4480.00000000           4112         -12125          -8092           2083
   4484.00000000          11570          -1031          -2998           -494
   4488.00000000          -9568          11550          -9099          15256
   4492.00000000          10498           6388          -6159         -11769
   4496.00000000         -15393          -9957          -3471          -9406
   4500.00000000          -5600         -17644         -11853          -7681
   4504.00000000          11239          -5790           4478           1871
   4508.00000000          -2521          -1092           2681          -6126
   4512.00000000           8631          -1864          -6880            -40
   4516.00000000          -6648           8162          -6675           4123
   4520.00000000         -12510           3240           5289           6735
   4524.00000000           4956          14253           3779           3394
   4528.00000000           -519          -2484          -2916           2895
   4532.00000000           -326          -3410          -1342            403
   4536.00000000           4732          -3989          12795          13223
   4540.00000000           1790         -10386           6828         -13843
   4544.00000000          -6154          11626           3439          10845
   4548.00000000           3901          -2185          11994          -4301
   4552.00000000          -1464           6040           1481          -4754
   4556.00000000          -8388           4588          -5054             22
   4560.00000000           9925           1757           1842           3054
   4564.00000000          -6564           9841          -4042          -3258
   4568.00000000           5501          -1884          -4021          -9104
   4572.00000000           -948          13169           4220          -2506
   4576.00000000           7068          -1972          -6942           4447
   4580.00000000           4881           6164           8879          -8393
   4584.00000000         -10283          -3014           2608          11340
   4588.00000000           4477          12816           4937          -8447
   4592.00000000          11347          11082          -2544         -10040
   4596.00000000           3387          -1129            786           2663
   4600.00000000          15378          -1608          -3138           4220
   4604.00000000           7348          -6851           6059           2257
   4608.00000000          -2294          -6707           9673           4702
   4612.00000000           7328            878          -6228           6284
   4616.00000000          -6208          -2651           5996           9457
   4620.00000000          -3151           1282          -8687           9277
   4624.00000000          -8173           -967          -5370           -774
   4628.00000000          -1957           6431          10460          15677
   4632.00000000           4524           3272           2958           -546
   4636.00000000          -9010          16194          -2845         -13568
   4640.00000000          12674           2620           4630          -2065
   4644.00000000          -2954           2105          -4374         -11955
   4648.00000000          -4702          -5822          12412           7190
   4652.00000000           4951            518          -3260           -242
   4656.00000000            294          -5328           3067           5413
   4660.00000000          -1139           4056           8363           2578
   4664.00000000           2438           8969           5198         -10213
   4668.00000000          10889           4316          -6958           1661
   4672.00000000          -9547           2312          -4124            457
   4676.00000000           6783           4491          -1536             82
   4680.00000000           2138           1145           4388            321
   4684.00000000          -4070           4463         -10558           4621
   4688.00000000           8132         -16805           1376          -7465
   4692.00000000           4722           8000          -3490           6853
   4696.00000000         -15300           4926           4514          -7175
   4700.00000000           2568           2602           2500           -442
   4704.00000000            609          -4150           3818           4310
   4708.00000000           7288           3360          -2286          -3514
   4712.00000000          11054          -9857          -3857           1618
   4716.00000000           6965          -1761           -698          -4409
   4720.00000000          -6828           -767           -655           2350
   4724.00000000            765           2633          -1905          -1972
   4728.00000000           -503          -1046           1345           5955
   4732.00000000           2272          -4637           3838          -9767
   4736.00000000           6783           4685           3272           3787
   4740.00000000          -2165          -4262          -4794           8608
   4744.00000000           5544          -5134          -8815           9437
   4748.00000000            549          14635          -3301          -3615
   4752.00000000          -5365          -2303            341          -2386
   4756.00000000            920           -627          -1060           7847
   4760.00000000           7314         -13319           5231          -4066
   4764.00000000           7114           4706          -3656          -3138
   4768.00000000             28          10009          -2765           9589
   4772.00000000            227          -7411           1072           -548
   4776.00000000           5710           5586          -3421          -5080
   4780.00000000           1335          -5753          -6035          -2023
   4784.00000000           4898          11362          -8088          10708
   4788.00000000           6507           -498           1900          -2932
   4792.00000000           7501           1612           2794          -4213
   4796.00000000           4604          -1819          -5230            -27
   4800.00000000           7179           -406          -2087           -414
   4804.00000000           5136           2078           3410           1809
   4808.00000000           9864          -7662          -6068           1548
   4812.00000000           3588           2374          -6375           2554
   4816.00000000          -2063            288            983          -1624
   4820.00000000           -660          -8120            828          -4429
   4824.00000000          -1738          -2377           8962           1934
   4828.00000000           3178          11789           -323           4149
   4832.00000000           8927          -7483           1960          -8103
   4836.00000000           3989           4654           4930          -8720
   4840.00000000          -3486         -11068           2513             17
   4844.00000000           2303             13            570            417
   4848.00000000             91           2794           1747           1564
   4852.00000000          -4836           1957           -205          -5820
   4856.00000000           5150           -665            299           3253
   4860.00000000            283            -54          -2388          -2181
   4864.00000000           2811           8109           3461           2005
   4868.00000000          -5141          -2937           3138          -4789
   4872.00000000           2873          -7869           1583          -5024
   4876.00000000          -1322           5447            368          -4155
   4880.00000000            830           3773           -246           4069
   4884.00000000            185           1453           -505          -4225
   4888.00000000           3320           3765           6787           3647
   4892.00000000           6702          -7542          -3824          -7634
   4896.00000000         -11213          -3119           4356           2787
   4900.00000000          -3505          -8173           4545           5617
   4904.00000000          -2783          -6801            950           -375
   4908.00000000          -2699            592           3421           2147
   4912.00000000          -8951          -3107          -4970          -2316
   4916.00000000            520           2925           -959          -8623
   4920.00000000           -694          -3330          -1586           9879
   4924.00000000          -2954           2150            242          -2736
   4928.00000000          -1415           2285           2434           2014
   4932.00000000           8749            755          -2321           -990
   4936.00000000           7298          -6652           3641          -4190
   4940.00000000           5722          -7962            494          -1254
   4944.00000000           4269           3418          -3736           -520
   4948.00000000          -1052           -747           2111          -3930
   4952.00000000          -6763          -3919           4169           1653
   4956.00000000           1679          -1473          -7779          -7762
   4960.00000000            516          -5668          -1511           6769
   4964.00000000           4110           3872          -5027          -7976
   4968.00000000           5329          -5491           4597          -4942
   4972.00000000           3179           3385            714          -1918
   4976.00000000          -1741          -3711          -4139          -6165
   4980.00000000          -1391           2512          -3054          -3200
   4984.00000000          -2704          -1111           -993            457
   4988.00000000          -3399           5746           1733           3365
   4992.00000000          -3984          -7020           3446           1028
   4996.00000000          -2547           2828          -1132            453
   5000.00000000           2962           -302           2237           5685
   5004.00000000          -1923           5988          -4240          -2935
   5008.00000000           1541           -678          -2628          -2833
   5012.00000000           1604          -6828          -1144            733
   5016.00000000          -4034          -2240            -19           -935
   5020.00000000          -5650           -807          -1999          -7586
   5024.00000000          -2361          -1325           4788           -874
   5028.00000000          -5319           -218           -746           3190
   5032.00000000          -2154          -5281           -596           1454
   5036.00000000           7270          -5884          -1174          -1864
   5040.00000000          -3596          -3477           2288           1425
   5044.00000000            219           4135           6790           -577
   5048.00000000          -2367           1463           -777           1047
   5052.00000000           2544          -1528          -2521          -3756
   5056.00000000          -3906           1200          -3186          -3137
   5060.00000000           5084           3006          -2156          -7127
   5064.00000000           1308           -502          -3632           1012
   5068.00000000          -6774           1443          -4379          -3922
   5072.00000000          -2840          -1551          -5215           -235
   5076.00000000           -241           1847          -5495            -87
   5080.00000000           -141          -1747          -1379           2662
   5084.00000000           6773           2071            238          -2368
   5088.00000000          -7036          -2293           -229           -535
   5092.00000000           -117            492           7421          -5612
   5096.00000000            331           -314          -2575           1853
   5100.00000000          -2058           -711           4231          -2269
   5104.00000000            361          -4431          -1979          -1616
   5108.00000000           3422           1380          -1833           2006
   5112.00000000           -173          -1203           1999           7988
   5116.00000000          -1949           1062           4872           1613
   5120.00000000           1254           3544           1388          -3564
   5124.00000000             95            429          -4178            787
   5128.00000000           3364          -2603            159           6782
   5132.00000000          -5834            542          -4801           3782
   5136.00000000          -2226           3103            957            831
   5140.00000000           -202          -1856          -3489          -4448
   5144.00000000          -5005           2451           2457          -4543
   5148.00000000          -3707          -1234          -1323           3151
   5152.00000000           1743           -951           3828           1957
   5156.00000000           6435           2034            727           1720
   5160.00000000            302          -1147           -330           1629
   5164.00000000          -1417           2766           3131           1791
   5168.00000000          -5870          -2634           4065          -5375
   5172.00000000          -2464           -488          -1829            638
   5176.00000000          -3665           4225          -1280          -4637
   5180.00000000           1353          -2074          -3685            -99
   5184.00000000           5134             49           -672           1630
   5188.00000000           4193           1301            645           -988
   5192.00000000          -6779            105          -4096          -1396
   5196.00000000          -2253           4631           1402            781
   5200.00000000           3267            827           2509          -2176
   5204.00000000            615          -3299          -5106           2159
   5208.00000000           1333          -3515           -539            349
   5212.00000000          -1287          -3179            249          -1579
   5216.00000000           -622           1211          -2500            -29
   5220.00000000          -7065           1119           3729          -3527
   5224.00000000            150          -2317           1880           -168
   5228.00000000           1276           4513           3855            717
   5232.00000000           3351           2710           1723          -3681
   5236.00000000           5192           2424          -3342          -2781
   5240.00000000           4424           5936           -694           2904
   5244.00000000          -2514            677            862           -683
   5248.00000000          -5010           2937           1749           2220
   5252.00000000           3943          -2291           2167           1987
   5256.00000000          -1682           -849          -4248          -1466
   5260.00000000           3157          -2643           5783            422
   5264.00000000          -5180          -1771            367          -2563
   5268.00000000           2626          -2185            438           4968
   5272.00000000           2586           4987           1013            572
   5276.00000000           4047           3651           1148           2565
   5280.00000000          -1595           1540           -957          -3414
   5284.00000000             40           2514            -79           1885
   5288.00000000           3327           2915           1360           1189
   5292.00000000           1144          -1384             43          -4889
   5296.00000000          -1518          -2196          -2286           2902
   5300.00000000          -2414           1976          -1190           1003
   5304.00000000            634            677          -1673          -1416
   5308.00000000           4967          -2675           2425             64
   5312.00000000          -1342           3477           1713           4994
   5316.00000000          -4000           1580           4087          -3244
   5320.00000000           1313           2880          -1489          -1872
   5324.00000000           2497           2427           1107           1137
   5328.00000000          -2665          -1331           -765           -100
   5332.00000000           1941            369           5336            753
   5336.00000000           5425           2562           -593          -1321
   5340.00000000           -886           1554           -871           2763
   5344.00000000          -2337           -798           2595            765
   5348.00000000           2795           2678            532          -1031
   5352.00000000           3933            272            293          -1480
   5356.00000000           2987           1579           4012           2571
   5360.00000000             91            206           3325            550
   5364.00000000           1728           1192          -2386            435
   5368.00000000           1365          -2525            738           1814
   5372.00000000           2394            112          -2359           1741
   5376.00000000            458           2720           2506             57
   5380.00000000           3427           2143           2724            803
   5384.00000000           3063            845            345            236
   5388.00000000           -566           5769           -629           2252
   5392.00000000            714            492            600          -1548
   5396.00000000           1117           1705           1936          -5258
   5400.00000000            321          -2231            113           1434
   5404.00000000           -434           2869           1454          -1469
   5408.00000000            859           1585           -108           -748
   5412.00000000           3496           -217            567           -920
   5416.00000000           4916          -1784          -3359           -530
   5420.00000000          -4203            239           2031          -1410
   5424.00000000          -2172           -865            813          -1031
   5428.00000000           3514           -730          -1017           2748
   5432.00000000          -3387          -3044          -4347           2749
   5436.00000000           1844           3869           2607           1472
   5440.00000000            -14           2534           1749           -880
   5444.00000000          -1315           3994            961          -1367
   5448.00000000           3648           -626           -294          -3393
   5452.00000000           4557          -1135           3534            625
   5456.00000000          -1054          -1165           -181            842
   5460.00000000            422           -533           1201          -2306
   5464.00000000           1130           1389           -738          -1349
   5468.00000000           3065           -269           1690            926
   5472.00000000           5606           3133          -1809          -1664
   5476.00000000           1053            459           1950           1830
   5480.00000000          -4546            925          -1307          -2609
   5484.00000000           1050           2830             12            -94
   5488.00000000           1599           1155            305            959
   5492.00000000           1781           2699           1015            224
   5496.00000000           2706           -769            903           2081
   5500.00000000          -1254           1039           3142          -2603
   5504.00000000          -1369          -1771           4398           -142
   5508.00000000           -472           2047             36          -2545
   5512.00000000           4794          -1934            865           1816
   5516.00000000           -877           2172           -917            360
   5520.00000000           1019          -1558           -289           2496
   5524.00000000          -1092           2378           2234           2058
   5528.00000000           2586          -1985           1331            368
   5532.00000000            723          -1700          -6136           1588
   5536.00000000            975           1323          -1841           2459
   5540.00000000           3489          -1108           1339           1025
   5544.00000000           2550           1984           1356          -1284
   5548.00000000             46           3048          -1262           1891
   5552.00000000           1936            778           -543          -1519
   5556.00000000          -1518           -272          -2149           -615
   5560.00000000           -174           -606           1458           -926
   5564.00000000             73            127            185          -2496
   5568.00000000           2365           2567           -183           2236
   5572.00000000           -555            776           2503          -3289
   5576.00000000          -3644          -1034            403            641
   5580.00000000          -1385          -1234           -224          -1402
   5584.00000000           -161           1143          -2639          -2255
   5588.00000000          -2121          -2366            334           1104
   5592.00000000          -3261           -359           1190          -2325
   5596.00000000            -97            370          -2382            683
   5600.00000000            682           1197          -1666           -591
   5604.00000000           -819            996           -461          -2538
   5608.00000000            411           1127           1271          -2471
   5612.00000000          -1243           -779            496           1505
   5616.00000000          -1345           2573            648           -870
   5620.00000000          -1424          -4175          -2581          -2583
   5624.00000000           -184          -3394          -1705          -2165
   5628.00000000           -109          -1496           1680            127
   5632.00000000            451           -554          -1204          -1843
   5636.00000000            133           -796          -1426          -2238
   5640.00000000            -86           2503          -1196           1498
   5644.00000000          -3067          -2480          -1111            538
   5648.00000000           2009           -895           -157           -404
   5652.00000000           -450           2096           2473          -1588
   5656.00000000          -2800          -1618          -4642            851
   5660.00000000            199           2475           2931           -651
   5664.00000000            153           1889           1595             82
   5668.00000000           -587           -182            731           1719
   5672.00000000           1715            -16            732          -3598
   5676.00000000          -1710            165            480           -448
   5680.00000000            815           1216            281           2121
   5684.00000000           -565           4397          -1851           1510
   5688.00000000           1080            914          -1468            466
   5692.00000000           1382            109             47          -4756
   5696.00000000           1498            697            802            462
   5700.00000000          -1953            -77           1599           -787
   5704.00000000           3605            243            387           2283
   5708.00000000            777            416            641            931
   5712.00000000          -2969          -1686          -1429           1032
   5716.00000000           -897          -1132          -3270           2178
   5720.00000000            989          -2055          -1190            885
   5724.00000000           -266           -223          -1663          -1096
   5728.00000000          -1639            892            461           -688
   5732.00000000           2683           -405           -961          -3247
   5736.00000000          -3257            973          -2397            122
   5740.00000000            892          -2305           1047           -608
   5744.00000000           2064           2044           -821            -16
   5748.00000000            402          -1377           -275           1318
   5752.00000000           1245          -2492           3990             41
   5756.00000000          -1155           1624            862           1558
   5760.00000000            520           -300          -3315          -2105
   5764.00000000            124           1448          -1249           -300
   5768.00000000           2526             30          -2810          -3377
   5772.00000000           -923          -2310           2802           2512
   5776.00000000           -883           -962          -1146           1157
   5780.00000000            330          -1516           1669           -270
   5784.00000000          -1341           -365            791            342
   5788.00000000           -762           3085            332            866
   5792.00000000           2570           1029            821            915
   5796.00000000           -823          -1054          -1823          -1117
   5800.00000000            831           -986           -258          -1438
   5804.00000000          -1428          -1340           -458          -2562
   5808.00000000          -1907            641          -1283           -532
   5812.00000000           1085            685            497           1972
   5816.00000000           -869           -980           1777            510
   5820.00000000             50           -889           -344            908
   5824.00000000           3320          -2029            952           2173
   5828.00000000           -415           1068           -758          -1319
   5832.00000000           1173            151            438            140
   5836.00000000           -126           -378            384           -593
   5840.00000000          -1977          -2602           -354           1077
   5844.00000000           2085          -2035           -463           2449
   5848.00000000           -224          -2395            563          -1502
   5852.00000000           -403           2340          -1913          -1819
   5856.00000000           2090          -1049          -1785           1135
   5860.00000000           -718            861           1304           1189
   5864.00000000          -1538           -140          -1114            415
   5868.00000000           -349            255          -1486           -691
   5872.00000000            881            384          -2929           1075
   5876.00000000           -524            130            158           -860
   5880.00000000           -621            554          -1675            826
   5884.00000000           2768             29           -827           1118
   5888.00000000            417           1632           -301            192
   5892.00000000           -586          -1440           -496          -2116
   5896.00000000          -2101          -1012          -1178            -81
   5900.00000000            646           2700           -105            876
   5904.00000000          -1522           -158            785          -2171
   5908.00000000           2804            255            362            847
   5912.00000000          -1186            637             -7           -615
   5916.00000000           -103           1955           1826           -181
   5920.00000000            480            272           1000           1473
   5924.00000000           -228            -59            -78           -821
   5928.00000000           1109            144           -393            670
   5932.00000000           -421            583           2005           -645
   5936.00000000            713          -1449           -357           -254
   5940.00000000           -198            -61           -211          -2094
   5944.00000000            990          -1212            299          -1048
   5948.00000000           -631           -347            120           -230
   5952.00000000           -144           1377          -2303           -104
   5956.00000000           -593           -508           1048           -867
   5960.00000000          -1636            568            179            538
   5964.00000000            318            -27            117           -315
   5968.00000000          -1320           -530          -2774            127
   5972.00000000            538           -439           -910           -170
   5976.00000000            784           2030           -225            118
   5980.00000000             48           -237            517           -538
   5984.00000000           1454            562          -1374            -35
   5988.00000000           -476           1314           -134           -959
   5992.00000000          -1158            150            737            415
   5996.00000000           -872           -509            482           1119
   6000.00000000            715            818            998            611
   6004.00000000           1681           -374           -452           -410
   6008.00000000           1444           -731           -168            141
   6012.00000000           1693             46            965            617
   6016.00000000            -15           -205             99          -1444
   6020.00000000           -765           1901          -1827            916
   6024.00000000           -488            533            341           -653
   6028.00000000            662           1570           -128           -482
   6032.00000000           1876            625           -797           -111
   6036.00000000            170          -1181           -854           -973
   6040.00000000           -684           3067           1074           1466
   6044.00000000            206            826           1413            325
   6048.00000000            279            936            226           -502
   6052.00000000             78          -1228            609           -561
   6056.00000000           1998            639           -666            421
   6060.00000000           -457            225           -969           -501
   6064.00000000           1147            116          -1085           1113
   6068.00000000           -448          -1259            151           1136
   6072.00000000           1163          -1169          -1017            415
   6076.00000000           -204          -2302           1213            104
   6080.00000000           -634           1400            126             96
   6084.00000000           -123            158             44          -1386
   6088.00000000           -164             94           1195            -31
   6092.00000000          -1279            562           -386            785
   6096.00000000           -323            862            528           1248
   6100.00000000           1346           1798           -787           -695
   6104.00000000            827           1001            414           1051
   6108.00000000           -120            764            474          -1237
   6112.00000000            337           -943          -1435          -1453
   6116.00000000            268           -290            209           -643
   6120.00000000           1004            103           1234           -435
   6124.00000000           -622            -74            900           -566
   6128.00000000           -645           -770           -775           -620
   6132.00000000            765           1491            391            345
   6136.00000000            296            131           -331            165
   6140.00000000           1409            319            446           -249
   6144.00000000           -387            405           1385           -452
   6148.00000000          -1294            388          -1571            388
   6152.00000000            -52           1162           -272           -597
   6156.00000000           -192            438           1597          -1353
   6160.00000000             22           -763            924          -1073
   6164.00000000           -540            289           -268            468
   6168.00000000           1189            -64           -811             79
   6172.00000000            262            470           1235            160
   6176.00000000            305           -475             61            121
   6180.00000000           1341          -1327            376            240
   6184.00000000           -631          -1129           -635           1104
   6188.00000000            305          -1248             36            146
   6192.00000000           -205             38            -30          -1170
   6196.00000000           1079           -267           -190           -371
   6200.00000000            672           -197            432          -1604
   6204.00000000            429           -428           -335            578
   6208.00000000           -202            -82          -1202            756
   6212.00000000           -354            244           -872           -728
   6216.00000000           -790            391            339            -80
   6220.00000000           -563          -1061            633           -806
   6224.00000000          -1075            366            525           -810
   6228.00000000          -1283            977          -1071             27
   6232.00000000           -652           -150           -561            400
   6236.00000000            -52           -187           -424           -492
   6240.00000000            209           1537          -1246            872
   6244.00000000           -520            199             82           -817
   6248.00000000            856           -298           1188            108
   6252.00000000           -437            900           -129            479
   6256.00000000           -297           -422           -328            739
   6260.00000000            950           -675            286            265
   6264.00000000           -463            564           -493           -794
   6268.00000000            -45           -442           -771            541
   6272.00000000            -84            567           1354            709
   6276.00000000             11            643           -277           -432
   6280.00000000            356           -291            375            -48
   6284.00000000           -637           -841           -106           -161
   6288.00000000           -452           -225           -183           -667
   6292.00000000          -1426          -1163           -767           -572
   6296.00000000           -265           -887           -163           -255
   6300.00000000           -376           -144            -89            -90
   6304.00000000           -124            127            687            252
   6308.00000000            141           -868           -167            231
   6312.00000000            924           -663             23           -230
   6316.00000000           -105           -165           -415            249
   6320.00000000          -1473            266              6            923
   6324.00000000           -165           -752          -1164             54
   6328.00000000           -332              7            126            -47
   6332.00000000            308            749            188           -195
   6336.00000000           1041           -438            301           -688
   6340.00000000            377            299          -1161            740
   6344.00000000           -106           -669           -554             60
   6348.00000000            348          -1196           -155           -154
   6352.00000000           -697             71            259             -6
   6356.00000000            520            123            226            144
   6360.00000000           -206            289           -311            731
   6364.00000000           -430           -454           -495           -560
   6368.00000000           1270           -185            252            121
   6372.00000000            576            125            342           -651
   6376.00000000             98           -507           -445            422
   6380.00000000            322            507           -323            633
   6384.00000000           -246          -1043           -487           -125
   6388.00000000           -487           -876            841           -274
   6392.00000000            385           -641            943            836
   6396.00000000            129           -312           -822            278
   6400.00000000           -355            142           -689            -35
   6404.00000000            387            -45            416            190
   6408.00000000            -75            664           -742            322
   6412.00000000            133            -64           -505            -50
   6416.00000000           -100           -123            615           -212
   6420.00000000            -55            636            111           -302
   6424.00000000           -634           -222           -871             35
   6428.00000000            187           -735           -496           1102
   6432.00000000            349            593            149            237
   6436.00000000           -585            109            935           -653
   6440.00000000           -204            190            763           -373
   6444.00000000            689            943           -190             15
   6448.00000000           -163            554             60             17
   6452.00000000            609            237             -7            267
   6456.00000000            352           -452            282           -443
   6460.00000000            682            459            126            902
   6464.00000000            -22            399          -1098            -34
   6468.00000000            795            710            740           -216
   6472.00000000           -656            566           -228            338
   6476.00000000            760            233            331            744
   6480.00000000           1075           -789            466            252
   6484.00000000            183            503            378           -413
   6488.00000000            319           -724            157            -72
   6492.00000000           -113            199           -812            -63
   6496.00000000            -94           -290           -262            298
   6500.00000000             32           -184           -282           -172
   6504.00000000            606            149            247           -406
   6508.00000000            787           -914             46           -138
   6512.00000000            144            -23           -315            340
   6516.00000000           -861           -390            472            306
   6520.00000000           -503             70           -334             64
   6524.00000000            195           -783           -332           -829
   6528.00000000           -226            548            156            749
   6532.00000000           -521            227           1231            146
   6536.00000000            511           -547           -303            657
   6540.00000000            455            443           -652            121
   6544.00000000           -131           -396           1056            227
   6548.00000000            566           -292            -20           -178
   6552.00000000           -752           -343            497            490
   6556.00000000           -457            490            379             96
   6560.00000000           -303            344            823           -270
   6564.00000000            191            170            -13            583
   6568.00000000           -520            189            231             -9
   6572.00000000            388            170           -273            -24
   6576.00000000            534            336             94            535
   6580.00000000            200            565            -48            371
   6584.00000000           -718            341           -616            254
   6588.00000000            487            125            -27            970
   6592.00000000            -24            351            518            282
   6596.00000000            470            161            -60            -60
   6600.00000000           -372           -254            398           -708
   6604.00000000           -224            691             77            252
   6608.00000000           -180            123           -333            110
   6612.00000000            143           -324           -794            629
   6616.00000000            605            -72           -318            -45
   6620.00000000           -226           -271           -344            578
   6624.00000000           -349           -781           -359             41
   6628.00000000           -162            541             28           -149
   6632.00000000            681           -339           -152              2
   6636.00000000            361             -4            -47           -126
   6640.00000000           -427           -382             19           -162
   6644.00000000           -198            453            -40            -40
   6648.00000000            353             88            238           -276
   6652.00000000           -222             43            364           -497
   6656.00000000           -479           -218           -150            289
   6660.00000000           -588           -819           -415            -73
   6664.00000000             39           -517             13           -405
   6668.00000000            152            107           -201              3
   6672.00000000            314            310            609            412
   6676.00000000           -502            649           -239            164
   6680.00000000            184            211            219           -615
   6684.00000000            209           -350           -328           -644
   6688.00000000           -258            769            490            674
   6692.00000000            351             94              7             57
   6696.00000000            766            172           1014            748
   6700.00000000             51            550            643            -55
   6704.00000000           -174            701            684            256
   6708.00000000            122           -219           -178            201
   6712.00000000           -167           -540            737            117
   6716.00000000            -42           -292            -56            833
   6720.00000000            607             29             19            293
   6724.00000000            175           -123            473            473
   6728.00000000            273            394           -351            -39
   6732.00000000           -247           -453              7            457
   6736.00000000           -826            -69            100            279
   6740.00000000           -917            386             79           -111
   6744.00000000            331            471           -122            -39
   6748.00000000            221           -328           -376             79
   6752.00000000            321            998            154           -280
   6756.00000000            491           -228           -140           -484
   6760.00000000            104            229           -715             23
   6764.00000000            -27             47           -150           -290
   6768.00000000            566           -306           -391           -254
   6772.00000000            452            108            -19           -298
   6776.00000000            548            726             24           -211
   6780.00000000            607            215            286           -285
   6784.00000000            384           -198            303             65
   6788.00000000            725            541           -419            161
   6792.00000000            203            203            423            545
   6796.00000000            411             92             30            589
   6800.00000000            227            -56           -169            166
   6804.00000000            679            422           -667            -11
   6808.00000000           -352           -302            123           -183
   6812.00000000            -99             11             42            219
   6816.00000000            354            110            460            -30
   6820.00000000             75           -142            190            167
   6824.00000000              5           -640            368            420
   6828.00000000           -194             51            759            -12
   6832.00000000           -752           -492           -364           -329
   6836.00000000             71           -412            127            179
   6840.00000000           -178            160             10            477
   6844.00000000           -298            174           -146           -300
   6848.00000000            131            -36            175            835
   6852.00000000           -105            501           -301           -488
   6856.00000000           -366           -335            172            341
   6860.00000000           -552           -327            -80            496
   6864.00000000             18            532           -203            -57
   6868.00000000            701            285           -265           -376
   6872.00000000            -84            -41            339            282
   6876.00000000            223             73            297           -232
   6880.00000000            -54            -18            243           -131
   6884.00000000            -21           -526            225            -44
   6888.00000000            260            765            177           -169
   6892.00000000            -51           -163           -164            725
   6896.00000000           -305           -150           -301            423
   6900.00000000             46            -95            371            628
   6904.00000000           -297           -111           -273            -31
   6908.00000000           -239            272           -549            333
   6912.00000000           -250            145           -417            369
   6916.00000000            166           -118           -152           -150
   6920.00000000            -84            -96            118            138
   6924.00000000            224            454            101            208
   6928.00000000           -219             70            392            202
   6932.00000000           -316           -245           -371           -295
   6936.00000000             32           -103           -104            -82
   6940.00000000           -128            137             75            370
   6944.00000000            114           -217           -130             12
   6948.00000000           -239            194            445            -59
   6952.00000000           -181           -186            257            373
   6956.00000000           -231           -467           -141           -157
   6960.00000000            547            144           -390           -258
   6964.00000000              2           -158             11           -222
   6968.00000000            146            -99            130           -215
   6972.00000000            117           -129           -171            367
   6976.00000000            -39            133            279             85
   6980.00000000             23            158            225           -205
   6984.00000000             86           -415             66            -74
   6988.00000000           -246             -2            300             58
   6992.00000000           -366            -98           -298            284
   6996.00000000             75            215            353           -510
   7000.00000000             30           -344           -728           -190
   7004.00000000             -8            119             23           -192
   7008.00000000           -549           -719           -553           -481
   7012.00000000             70           -341            -49            -56
   7016.00000000            -82           -362           -348            441
   7020.00000000           -141            -98           -104            328
   7024.00000000           -176            601           -275             93
   7028.00000000            102           -208            -14           -190
   7032.00000000           -187           -273            223            405
   7036.00000000             87            216            -72            -74
   7040.00000000            -39            391           -254           -397
   7044.00000000           -262            436           -373            -99
   7048.00000000           -163           -390             78           -316
   7052.00000000            -86           -192            237            193
   7056.00000000             38             48              7            137
   7060.00000000            -81            327            142           -229
   7064.00000000             40           -588           -322           -277
   7068.00000000            381            168            426            221
   7072.00000000            160             69           -251           -373
   7076.00000000            -62           -130            181           -148
   7080.00000000             92            513              0            189
   7084.00000000           -106            467            293           -245
   7088.00000000            565            -24           -182           -471
   7092.00000000             29             36           -148             97
   7096.00000000            298            272           -182            -83
   7100.00000000            298           -136           -267            138
   7104.00000000           -234            103             59           -481
   7108.00000000            -94            -22            -52            206
   7112.00000000            165            -96            -57           -256
   7116.00000000            579            -58            -89             75
   7120.00000000            234            413            -86           -119
   7124.00000000            132             84            102           -150
   7128.00000000            455           -229             46             16
   7132.00000000             88            -95            123             23
   7136.00000000           -227            338           -109           -579
   7140.00000000            334            139             57            -15
   7144.00000000            529            -12            103            209
   7148.00000000            -67           -320            121           -506
   7152.00000000           -133           -239            -69           -245
   7156.00000000           -141           -107            269            -36
   7160.00000000            -91           -324           -276            293
   7164.00000000           -138            -26              3            160
   7168.00000000           -147           -127            165            225
   7172.00000000            257            220            -36             63
   7176.00000000             72            365           -367             48
   7180.00000000            -63              9             -5              0
   7184.00000000            -43            110             77            471
   7188.00000000            462           -162           -426             50
   7192.00000000           -101             53              9            176
   7196.00000000            -51           -163            310            367
   7200.00000000            -85           -180           -340           -212
   7204.00000000             -6             74           -389            345
   7208.00000000           -130           -162             11            -19
   7212.00000000            266              8             96            -18
   7216.00000000            417             46             30             74
   7220.00000000           -101            237             16             96
   7224.00000000            242           -142           -219            137
   7228.00000000            -25           -144            116            104
   7232.00000000            -54              8           -230             74
   7236.00000000           -622            480           -174            132
   7240.00000000            259           -142           -194           -447
   7244.00000000             -6            346            334            -74
   7248.00000000             68           -375           -158             79
   7252.00000000             91           -160            192             50
   7256.00000000            -40            324             -8             -2
   7260.00000000            178             97             39             67
   7264.00000000            388            447              8            -57
   7268.00000000             54             73             34             14
   7272.00000000             -4            -37            185           -100
   7276.00000000            -13           -301            269            107
   7280.00000000           -224             55            392           -292
   7284.00000000            -20            474            -10            341
   7288.00000000            378            -70            353             40
   7292.00000000             26             14            183            545
   7296.00000000            390           -121            216           -209
   7300.00000000            177            116             14           -286
   7304.00000000            -24           -117            214           -227
   7308.00000000            -51            214             69             78
   7312.00000000           -273            248            -11            342
   7316.00000000            -26            -92             44           -205
   7320.00000000           -199            -23            -21            276
   7324.00000000             29             47           -213            -80
   7328.00000000            223             45             59            -30
   7332.00000000           -178            206             80            -69
   7336.00000000           -240             80             22             22
   7340.00000000            -10            121             -8             78
   7344.00000000            292           -112           -106           -186
   7348.00000000            232            198            116            -37
   7352.00000000            147            220            -40           -114
   7356.00000000            122            204            153            232
   7360.00000000             29            259             51             33
   7364.00000000            342           -175            181            -50
   7368.00000000            336           -132             14            -45
   7372.00000000            209            -46            107            -73
   7376.00000000             59            -36            218             45
   7380.00000000             96            -46             50             87
   7384.00000000           -217            -50            230           -335
   7388.00000000             25            -26            -86            105
   7392.00000000             56             98             93            -43
   7396.00000000              2            276            -40             -4
   7400.00000000           -175             -6            -42            237
   7404.00000000              9            -18            -26             23
   7408.00000000            211           -263            -77            223
   7412.00000000            -81           -180             43            112
   7416.00000000            -45            214              1           -207
   7420.00000000            -79            -73            -10            118
   7424.00000000             38            -91            175            111
   7428.00000000            103             32             56           -232
   7432.00000000            154           -141             -8           -189
   7436.00000000           -240            -86            130            113
   7440.00000000             51            156            130           -206
   7444.00000000            163           -244              7           -147
   7448.00000000             69            140             29           -108
   7452.00000000            107             -6            -18            161
   7456.00000000           -114            -91            -93             -5
   7460.00000000             84            119           -162           -187
   7464.00000000            122            -67              0            194
   7468.00000000            329             55            200           -282
   7472.00000000             89            -71             87           -247
   7476.00000000             14           -110            325            -39
   7480.00000000             75            133            184           -267
   7484.00000000           -135           -274             -4            101
   7488.00000000           -159             75             31            -76
   7492.00000000           -229            215           -173           -198
   7496.00000000            -30           -152            107             37
   7500.00000000            -10            -21           -219           -112
   7504.00000000             83             57            -55            157
   7508.00000000            -46             95            -64           -109
   7512.00000000            -79             25             41            224
   7516.00000000           -109            -69           -184             76
   7520.00000000            143           -186            -80           -241
   7524.00000000            230            -48           -229             10
   7528.00000000            120            -76             13             -7
   7532.00000000           -124            245             20           -177
   7536.00000000           -306             31            -50             62
   7540.00000000            114            -56             86           -103
   7544.00000000             52            166           -105           -282
   7548.00000000           -106           -186           -141            -42
   7552.00000000             60            113            -48             39
   7556.00000000             10            -41             24            121
   7560.00000000            -68           -102             26            175
   7564.00000000            -26            189            -32             60
   7568.00000000            103             92           -119            -78
   7572.00000000             64            -19            -96             45
   7576.00000000            -47            -80           -150            -72
   7580.00000000            -80           -116            201            -92
   7584.00000000            -83             30            149             21
   7588.00000000           -165            -81           -126            -79
   7592.00000000           -135            -30            -49           -122
   7596.00000000           -210             49             89            286
   7600.00000000           -188            -45             16             51
   7604.00000000             28             -7           -199            249
   7608.00000000            -51            -31            -73            -12
   7612.00000000            198             62             20            -71
   7616.00000000           -102            111            -40           -129
   7620.00000000            275           -279             81             18
   7624.00000000             99            165           -235            -62
   7628.00000000             78           -339             74             93
   7632.00000000            118            105            -42             27
   7636.00000000             23           -203             27             -7
   7640.00000000           -106           -120           -122             25
   7644.00000000             48             44            -16            -81
   7648.00000000             -8           -109           -254             56
   7652.00000000             69            132             73           -134
   7656.00000000            -28            -44             27           -138
   7660.00000000           -109            -16            -64           -179
   7664.00000000             -7             28             90           -148
   7668.00000000            288              6             65            -84
   7672.00000000             86            -57           -120             51
   7676.00000000            -14           -156            205             47
   7680.00000000             59            142           -131            203
   7684.00000000            -71            -43             71            -99
   7688.00000000            -95            -55            -55            207
   7692.00000000           -146            -68           -151           -187
   7696.00000000           -154            -49           -144            218
   7700.00000000             54             11           -242           -110
   7704.00000000             86            -72             85             21
   7708.00000000             -7           -122            101           -145
   7712.00000000            155            -15             99           -139
   7716.00000000              8             56            -24            -85
   7720.00000000           -130           -127            -54             72
   7724.00000000            112           -189            -41            -54
   7728.00000000             31            157             50             99
   7732.00000000            -20           -186             46            134
   7736.00000000            -11            -19            -16             88
   7740.00000000           -119              1           -228           -175
   7744.00000000            -80            -67            -75            -35
   7748.00000000            -48              6            -92            126
   7752.00000000            -75           -142             60              7
   7756.00000000           -183            -63            -19             57
   7760.00000000              4           -114            -38            102
   7764.00000000           -101           -120            125           -195
   7768.00000000             42             -5              2            111
   7772.00000000           -115             30             16            -69
   7776.00000000           -171           -148             31            -28
   7780.00000000             35            215           -120            114
   7784.00000000            -22            113            -13             32
   7788.00000000            -32            160            117            -17
   7792.00000000            -14            -49             91           -115
   7796.00000000           -123            114            -51            172
   7800.00000000             70            -20             25            -23
   7804.00000000           -160            -24            -42            -28
   7808.00000000             61             38            -72              0
   7812.00000000            -57            -94            -52             66
   7816.00000000            181             77             42            -47
   7820.00000000             32             88             80            -46
   7824.00000000            -26             15            160             97
   7828.00000000             50             69              4             32
   7832.00000000             26            171             -2            -44
   7836.00000000            -64            160            104             26
   7840.00000000            -64            -35             66             14
   7844.00000000           -126             22            -45             30
   7848.00000000             20            111            171            -14
   7852.00000000             49            -42            132           -266
   7856.00000000             -3             85             -4             58
   7860.00000000             48            119            -51           -162
   7864.00000000             29             76             86            -43
   7868.00000000           -133             12            -61            -26
   7872.00000000            -61            -43           -214             90
   7876.00000000             83             90            -90            234
   7880.00000000             29             13             37            -77
   7884.00000000             -5            143            -84            -57
   7888.00000000             88            -50              5            -21
   7892.00000000            -71            -36             23            -17
   7896.00000000             -8            171            -42             57
   7900.00000000              9             59            -68            -46
   7904.00000000             89            -85             35             11
   7908.00000000             40            -29           -134            -26
   7912.00000000            217             17            206            -36
   7916.00000000             63            -27             93             74
   7920.00000000             13            163             90            -46
   7924.00000000            -16            104            -76            -12
   7928.00000000             -4            -18            119            -52
   7932.00000000           -107             17             18            -52
   7936.00000000            -33           -148            -59            -76
   7940.00000000           -114             80            -30             58
   7944.00000000             49            -23            -31           -138
   7948.00000000            108             96             45             42
   7952.00000000            -66            173            -35            -25
   7956.00000000             71              8             19             54
   7960.00000000            -61             36            -29             88
   7964.00000000             28             69            113           -150
   7968.00000000             69             21             29             18
   7972.00000000            -45             39             -6            -12
   7976.00000000             60            -45            -93             52
   7980.00000000            114            -97            -31              3
   7984.00000000             12             76             54             93
   7988.00000000            100            -26             71             75
   7992.00000000            -32             27            -24             91
   7996.00000000            -69             26            174            -16
   8000.00000000            -62             -1             -1            -66
   8004.00000000             66             32             77            119
   8008.00000000             49            -82             39           -144
   8012.00000000            147             41             13            -32
   8016.00000000             19             52            117            -93
   8020.00000000            159            -33             78            -53
   8024.00000000             -6             56            159             43
   8028.00000000             35              4             36            -58
   8032.00000000           -136            -19             80             -4
   8036.00000000            -36            210             75            -11
   8040.00000000            159             71             32            -22
   8044.00000000             63             68             87           -151
   8048.00000000             97            -13             10             68
   8052.00000000             -8             60            -26            148
   8056.00000000             17           -104             62             52
   8060.00000000              1            -11           -117             76
   8064.00000000             63            -69             28            -14
   8068.00000000              8            135              9             38
   8072.00000000             78            -10            102             21
   8076.00000000             76              7             53            -21
   8080.00000000            119             -5            127            -39
   8084.00000000             25             11             11              0
   8088.00000000              4             52             57            -65
   8092.00000000              1             14            -56             54
   8096.00000000             18              5            -81            -73
   8100.00000000             -5             41             12             65
   8104.00000000             44            103             49             22
   8108.00000000            -12             86            -91            -54
   8112.00000000             52            -25             16             -9
   8116.00000000             56            -19            100             30
   8120.00000000             23            -63             48           -162
   8124.00000000             37             19             40            -81
   8128.00000000           -103            -38            -79             48
   8132.00000000             44              1             13              9
   8136.00000000             -0             15             41             -8
   8140.00000000            -29            -21              4            -48
   8144.00000000            -38            -28              8            -67
   8148.00000000             11            -21             92            -43
   8152.00000000             87             34            -10             59
   8156.00000000             67             89           -107             41
   8160.00000000            -64            -93            -81             51
   8164.00000000            124            -30              1            -18
   8168.00000000            -39             40            148             39
   8172.00000000            -22            -25             25            -25
   8176.00000000            -24            -46            -83             63
   8180.00000000             28            -47             22              0
   8184.00000000             41            -14             85             20
   8188.00000000            107             37             36             16
##END NTUPLES=NMR FID
##END=
