##TITLE=CEC-PhSi2-flow(sequence-1015)-06-09-26
##JCAMP-DX=5.01 $$ Nanalysis NMReady v2.2.5.1
##DATA TYPE=NMR FID
##DATA CLASS=NTUPLES
##ORIGIN=Nanalysis Corp.
##OWNER=Nanalysis
##LONG DATE=2026/06/09 10:26:05-0400
##SPECTROMETER/DATA SYSTEM=NMReady 60/nanalysis-X542
##INSTRUMENTAL PARAMETERS=^1H
##TEMPERATURE=32.999904
##PRESSURE=1.000000  $$ Bar
##RESOLUTION=0.00001999999949
##SAMPLE DESCRIPTION=None
##.OBSERVE FREQUENCY=60.55081179737099
##.OBSERVE NUCLEUS=^1H
##.SOLVENT NAME=Toluene
##.ACQUISITION MODE=SIMULTANEOUS
##.SHIFT REFERENCE=INTERNAL, Toluene, 4096, 5.00000000000000
##.SOLVENT REFERENCE=5.00000000000000
##.PULSE SEQUENCE=1D
##.DELAY=(0.000000,0.000000)
##.FIELD=1.422198  $$ Tesla
##.OBSERVE 90=15.789399
##.ACQUISITION TIME=6.55279983446235
##.ZERO FILL=0
##.AVERAGES=4
##.DIGITISER RES=16
##.SPINNING RATE=0.000000
$$##.PHASE 0=-20.00000000000000
$$##.PHASE 1=79.00000000000000
$$ NMReady specific parameters
##$SCANS=4
##$SCAN DELAY=1.000014
##$TOTAL DURATION=31.338313
##$X_PULSE=14.210050
##$RECVR_GAIN=12
##$SWEEP WIDTH=20.000000
##$RELAXATIONDELAY=1.280964
##$ZEROING=7.000000
##$APODIZATION=0.030000
##$PHASECORRECTION=-20.000000,79.000000
##$PIVOT=0.000000
##$DT=0.000020
##$LOCKOFFSET=2.080000
##$SPECTRALCENTER=5.000000
##$DECIMATION=40
##$LOWESTF2=-322.245957
##$T2NUCLEUS=1H
##$PULSE_AMPLITUDE=17.500000
##$PLOTTYPE=1D
##$INTEGRALS IS MANUAL=False
##$INTEGRALS REFERENCE ENERGY=31328.032350334259
##$EXPERIMENT_SETTING_Apodization=0.03
##$EXPERIMENT_SETTING_Decoupling Mode=Off
##$EXPERIMENT_SETTING_Digital Resolution=0.02 Hz
##$EXPERIMENT_SETTING_Dummy Scans=0
##$EXPERIMENT_SETTING_Dwell Time=0.50 us
##$EXPERIMENT_SETTING_NPoints (Complex)=8192
##$EXPERIMENT_SETTING_Nucleus=1H
##$EXPERIMENT_SETTING_Pulse Angle=80.37, °
##$EXPERIMENT_SETTING_Pulse Width=14.21 us
##$EXPERIMENT_SETTING_Receiver Gain=12.00 dB
##$EXPERIMENT_SETTING_Receiver Gain (dB)=12, Auto
##$EXPERIMENT_SETTING_Scan Delay=1.0 s
##$EXPERIMENT_SETTING_Scans=4
##$EXPERIMENT_SETTING_Solvent=Toluene
##$EXPERIMENT_SETTING_Spectral Center=5.00 ppm
##$EXPERIMENT_SETTING_Spectral Width=20 ppm
##$EXPERIMENT_SETTING_TX Frequency=60.550812 MHz
##$EXPERIMENT_SETTING_Time Per Scan=7.8 sec
##$EXPERIMENT_SETTING_Zero Filling=7
##$RDC_ENABLED=1
##$RDC_TYPE=CONT5PAR
##$RDC_DATA=(0.145553,5.475700,2.437884,0.765625,0.888815)
$$ End of NMReady specific parameters
$$ Bruker specific parameters
$$ --------------------------
##$DATE=1781015165
##$SI= 65536
##$TDeff= 8192
##$SFO1= 60.55081179737099
##$O1= 302.75405898685494
##$SF= 60.55050904331200
##$BF1= 60.55050904331200
##$AQ= 6.55279983446235
##$SWH= 1250.00003157765696
##$SW= 20.64381953722922
##$SR= 0.00000000000000
##$OFFSET= 15.32198637845633
##$FIDRES= 0.15258789447969
##$O1P= 5.00000000000000
##$TD= 16384
##$DW= 399.99998989515007
##$SPECTYP= PROTON
##$NS= 4
##$DS= 0
##$DR= 16
##$DE=1.000014
##$RG=12
##$P1=14.210050
##$P= (0..2)
0.0 14.210050
##$PHC0= 59.50000000000000
##$PHC1= -79.00000000000000
##$PH_mod= 1
##$WDW= 1
##$LB= 0.02999999932945
$$ End of Bruker specific parameters
$$ ---------------------------------
##NPOINTS=8192
##DELTAX=0.0008000000
##NTUPLES=NMR FID
##VAR_NAME=TIME,FID/REAL,FID/IMAG,PAGE NUMBER
##SYMBOL=X,R,I,N
##VAR_TYPE=INDEPENDENT,DEPENDENT,DEPENDENT,PAGE
##VAR_FORM=AFFN,AFFN,AFFN,AFFN
##VAR_DIM=8192,8192,8192,2
##UNITS=SECONDS,ARBITRARY UNITS,ARBITRARY UNITS,
##FIRST=0.000000,1185.270594,369.029450,1
##LAST=6.552800,0.000046,0.000030,2
##MIN=0.000000,-1077.953466,-805.272906,1
##MAX=6.552800,1185.270594,934.006331,2
##FACTOR=0.00079999997979030013,0.00000055193479694407,0.00000055193479694407,1
##PAGE=N=1
##DATA TABLE= (X++(R..R)), XYDATA
      0.00000000     2147483000     1380952414     -226974732    -1532320018
      4.00000000    -1953044946    -1380491963     -286371859      713635405
      8.00000000     1178605418     1066597073      563266418       29755935
     12.00000000     -260008542     -289298570     -287465926     -451721310
     16.00000000     -742109266     -815550834     -389017244      455876778
     20.00000000     1261369295     1510571160      988568292      -65923356
     24.00000000    -1111132041    -1600218928    -1293739231     -374337154
     28.00000000      629198329     1178415690     1063611927      504159236
     32.00000000      -58212506     -315981899     -305649983     -264540747
     36.00000000     -362876686     -544608205     -569758275     -246631543
     40.00000000      372936797      980850914     1181966725      759993581
     44.00000000     -134205185    -1024943460    -1392713631    -1021040149
     48.00000000     -141418708      717604101     1089607713      859595917
     52.00000000      282016611     -235471164     -427122105     -310663968
     56.00000000     -110775672      -59671595     -195018436     -342285408
     60.00000000     -265336574      118265524      622787584      893278805
     64.00000000      669753320        1579261     -746872229    -1120929299
     68.00000000     -883304071     -181712791      561430295      924419074
     72.00000000      755905633      240788287     -260496425     -459743506
     76.00000000     -326889580      -75666739       45162100      -48711641
     80.00000000     -220403079     -229085636       31997951      442012566
     84.00000000      701971301      567252816       46631076     -578662729
     88.00000000     -923071039     -764948463     -191525456      458820369
     92.00000000      804548610      680954278      218940268     -264254082
     96.00000000     -477417980     -363428276      -89809920       89579001
    100.00000000       54784552     -110270515     -186866940      -31144116
    104.00000000      297649321      555344440      508055302      110621856
    108.00000000     -425825161     -771213769     -689367811     -214701233
    112.00000000      373932591      728798283      657937842      242998962
    116.00000000     -235665668     -480769495     -398210646     -123402219
    120.00000000       97142028      111620807      -31539692     -137195870
    124.00000000      -54476251      193755398      419485263      418948480
    128.00000000      125162658     -317455050     -635474346     -612258500
    132.00000000     -229308643      302809341      661052294      635121663
    136.00000000      259818871     -202673471     -466880775     -410657465
    140.00000000     -149469911       94279276      150746073       46748738
    144.00000000      -77715383      -67356674       95887719      288587958
    148.00000000      332681751      136512282     -225280481     -523328529
    152.00000000     -544450710     -227819374      243371192      579870752
    156.00000000      575422810      255393031     -161225337     -419760090
    160.00000000     -399048456     -169596294       83469501      189340441
    164.00000000      120938641      -20973372      -81107707       12158779
    168.00000000      184221203      265071168      136133310     -156221395
    172.00000000     -422519432     -458341045     -213747018      176154795
    176.00000000      474809660      501364217      247240716     -121735279
    180.00000000     -378537242     -388233215     -174314414       85544379
    184.00000000      218888749      165171982       10898025      -82671843
    188.00000000      -32647224      108916889      199705433      133212129
    192.00000000      -85064848     -308725646     -376548078     -211161229
    196.00000000      103801905      378423756      438099749      238627456
    200.00000000      -89563476     -342512723     -367490355     -178954481
    204.00000000       69363855      215974009      184596168       42448061
    208.00000000      -71494605      -65479687       42989422      145750475
    212.00000000      129575120      -23416258     -220049318     -308752558
    216.00000000     -199775807       61774669      310600502      382475272
    220.00000000      226767075      -61474804     -298740623     -347331693
    224.00000000     -196683889       39830335      202477458      203486618
    228.00000000       80002718      -53971545      -89337645      -16768201
    232.00000000       84504594      106978248        8782012     -147032713
    236.00000000     -233611863     -168457799       32575162      249266329
    240.00000000      330500651      215129831      -32474219     -260543582
    244.00000000     -326673665     -207133103       17781391      193222284
    248.00000000      221437556      109685939      -34950170     -107648383
    252.00000000      -65429788       29282008       80330315       29521774
    256.00000000      -92423352     -179326374     -145878626       13437323
    260.00000000      198530604      285404917      202395598      -10948187
    264.00000000     -221917652     -302236400     -203275659        2036240
    268.00000000      181219585      232307884      138429143      -13936758
    272.00000000     -115305094     -108965050      -23837126       51969154
    276.00000000       45808605      -34167146     -117752651     -120923066
    280.00000000      -14951315      138890208      225277628      177994918
    284.00000000       12622365     -172930777     -258332314     -188305865
    288.00000000      -10613979      162336192      226986742      153270618
    292.00000000        2968507     -115135236     -130607095      -56667795
    296.00000000       34089322       59466297        9104849      -66097316
    300.00000000      -93595170      -29635615       84655617      165587799
    304.00000000      142670677       16485725     -139312043     -220283439
    308.00000000     -169133299      -14111644      148216278      215880179
    312.00000000      151004028        6072369     -118219178     -149505107
    316.00000000      -81014886       22748861       80450667       59118763
    320.00000000      -12694300      -65895617      -55607890       24921443
    324.00000000      103302279      111400728       29423181      -95155283
    328.00000000     -171185437     -143186377      -19591405      118775437
    332.00000000      187523789      139617634       13901087     -110221988
    336.00000000     -153949313      -99066119        9402397       90871458
    340.00000000       93863744       28647099      -41807410      -58384561
    344.00000000      -13003452       55584703       80623019       32422466
    348.00000000      -55681249     -126230161     -115443407      -24534776
    352.00000000       93914030      159035477      127351749       14430451
    356.00000000     -104861375     -155097052     -107664407        1243930
    360.00000000       94305391      113966493       56269235      -26924663
    364.00000000      -67690927      -42547167       20303188       62757703
    368.00000000       48958980      -18214933      -84879509      -97806922
    372.00000000      -40293493       58492044      129432267      120978102
    376.00000000       30105904      -80076326     -143358892     -115210802
    380.00000000      -19771891       77035069      114240056       76431200
    384.00000000       -2830764      -59431287      -61880279      -13906758
    388.00000000       36598084       48257368       13009678      -46044931
    392.00000000      -75187892      -41440664       36482665      100868274
    396.00000000      104227477       35109031      -59816405     -123297741
    400.00000000     -110462319      -30445693       62346330      107507365
    404.00000000       84968667       11843206      -57025513      -77759424
    408.00000000      -38588483       16580749       48304337       31408287
    412.00000000      -18036891      -52004837      -40550367       15499330
    416.00000000       74124589       87439225       38714925      -40268534
    420.00000000      -99776555     -100093687      -35622346       50957712
    424.00000000      104208802       89791839       22371633      -52477757
    428.00000000      -85193348      -61359779       -3714509       45474443
    432.00000000       46926914       10454174      -30885824      -41326645
    436.00000000       -6755694       40101920       63422361       39129998
    440.00000000      -20130429      -76360929      -84320038      -33850148
    444.00000000       39293526       92334327       88255812       29538969
    448.00000000      -43925927      -83019667      -69638887      -13573046
    452.00000000       39942021       57643683       32046148      -12923769
    456.00000000      -39363307      -27491391       11244351       42244258
    460.00000000       35873844       -4507561      -49775553      -65834384
    464.00000000      -33115238       26395551       76692097       78997266
    468.00000000       32121744      -35749515      -79583584      -70527086
    472.00000000      -19459153       38578081       62929285       45316167
    476.00000000        -828012      -39590440      -42541569      -12232019
    480.00000000       22179072       34498058        9162430      -24819303
    484.00000000      -46769873      -32810637       12306197       53613141
    488.00000000       64441839       31111653      -25852036      -67828454
    492.00000000      -64908934      -21947144       35560598       67161158
    496.00000000       56415457        8643167      -36568318      -52156303
    500.00000000      -27937558       10381972       32272839       27129699
    504.00000000       -7449518      -32658907      -33289695       -2925118
    508.00000000       33412025       46543101       27832481      -13886714
    512.00000000      -53623951      -59462852      -25196030       24928681
    516.00000000       61714688       56435871       16573806      -28490501
    520.00000000      -48857720      -36056256        -192295       28250715
    524.00000000       32136063       12144188      -15044027      -27729046
    528.00000000      -11570970       16388962       36110084       28651222
    532.00000000       -7552642      -41070938      -51352310      -26876143
    536.00000000       16990402       50517693       49528477       20589568
    540.00000000      -20487919      -45989092      -39397914       -8122374
    544.00000000       25589244       36616363       21210183       -7390436
    548.00000000      -24295941      -18468012        6147994       26714108
    552.00000000       27560302        1119607      -27672617      -44457530
    556.00000000      -28194323        5419717       39305154       47375387
    560.00000000       26190694      -15659764      -45724783      -43988941
    564.00000000      -15144104       18860130       35227758       26717940
    568.00000000        2099229      -19407033      -20031559       -6399223
    572.00000000       13084711       22283029       12223341      -13824624
    576.00000000      -30486532      -19977136        2000274       30022248
    580.00000000       41251138       23123255      -11651304      -38709346
    584.00000000      -40764118      -18500205       12570047       32868923
    588.00000000       30960412        9706602      -14567361      -26083829
    592.00000000      -17485124        6690671       19402417       15751592
    596.00000000       -2743367      -19791130      -19718965       -1551071
    600.00000000       21162586       30526157       22905344       -3709609
    604.00000000      -27898328      -34074042      -21038477        6197564
    608.00000000       27069938       30826948       14198541      -10172607
    612.00000000      -23757021      -17287815        -885872       12886737
    616.00000000       13437107         615665      -13756839      -13597619
    620.00000000       -4389703       13878686       24767487       20674198
    624.00000000        -300855      -21431772      -29451866      -18995717
    628.00000000        4465536       27558795       30346784       14370941
    632.00000000       -8525460      -22602374      -21462605       -4868624
    636.00000000       10112595       14522000        5934955       -7412043
    640.00000000      -14975919       -9353566        7916568       18864695
    644.00000000       17099023        3680608      -15423261      -25533677
    648.00000000      -19470611       -1317620       20540110       28487594
    652.00000000       20033123       -1382320      -17297821      -20488988
    656.00000000      -10760151        3521237       11106035       11646912
    660.00000000        -842931       -9025452       -6600415        2501190
    664.00000000        9985566       10551395        2875149      -10016374
    668.00000000      -20562187      -16594104        1381761       17140799
    672.00000000       24732420       17373832       -1436044      -15172149
    676.00000000      -18810515      -10758097        1983900       13177675
    680.00000000       12627178        3719737       -4094199       -6751408
    684.00000000       -2385794        7256480        9343065        4567999
    688.00000000       -6882147      -15702851      -14160739       -3824752
    692.00000000       11171595       18543984       14995608        1481672
    696.00000000      -14325107      -18346568      -11993485         318691
    700.00000000        9588204       11803535        6405260        -860056
    704.00000000       -7129681       -4030463        3709518        6311525
    708.00000000        3964904       -4356995      -12910452      -11564541
    712.00000000       -2882754        8829731       15510177       14300933
    716.00000000         307169      -11117919      -17266745      -12651911
    720.00000000       -2147746        8268689       11932728        5228749
    724.00000000        -525933       -5013045       -2428327         536268
    728.00000000        5948827        3892331       -2295450      -10001386
    732.00000000       -9906547       -4026743        5521866       14816121
    736.00000000       14115881        5562856       -8093842      -14476888
    740.00000000      -12314031       -2894819        5449861       10349677
    744.00000000        8202249        2672219       -2817564       -4265234
    748.00000000       -1517082        3456112        4010862        -197306
    752.00000000       -3900869       -6480412       -2320382        6073306
    756.00000000       11853489       10883916        5257439       -5737067
    760.00000000      -11891814       -9336570       -4493536        5081238
    764.00000000        9825996        8898881        1760897       -4375682
    768.00000000       -5984193       -3423621        1102595        2486942
    772.00000000        -153339       -3474631       -6424775       -5629776
    776.00000000        3269259        8527998        9945724        3930698
    780.00000000       -4380801      -11265219       -9605383       -5031634
    784.00000000        4356221        9051244        9767022        4482380
    788.00000000       -2682189       -5323233       -4601026       -1812221
    792.00000000         994376         439955       -1329738       -2996150
    796.00000000       -1569067        1000043        6750530        6879410
    800.00000000        3801937       -3523724       -8394297       -7985142
    804.00000000       -2680470        3645040        8505080        8715643
    808.00000000        5268300       -2554119       -5351974       -4233945
    812.00000000       -1700154        3526810        2456241        1176247
    816.00000000       -2002237       -1798942        1064890        4196083
    820.00000000        4859507        3428229       -2591317       -7310523
    824.00000000       -6838496       -4465874        2986471        7851777
    828.00000000        9030434        5189265        -587601       -6561508
    832.00000000       -6616657       -2872224        1424089        3573417
    836.00000000         993464         486421       -1520515        -417513
    840.00000000        2125575        2540915        1745843       -3151735
    844.00000000       -4692081       -6814606       -2975002        2427523
    848.00000000        8270398        6489614        3208583       -1840851
    852.00000000       -3918115       -6101317       -2205401         236922
    856.00000000        4060448        2001022         600520         767705
    860.00000000        -534817        1580774        1565409         316702
    864.00000000        -931652       -4597076       -4744554       -2343823
    868.00000000        1853575        4321070        7454263        3170247
    872.00000000       -2701829       -5721717       -4911352       -3994391
    876.00000000         228327        1795855        3778133         947389
    880.00000000        -627079       -1098846        -550423        1430852
    884.00000000         503458        -809556       -3476680       -4816512
    888.00000000       -2790029        1554373        5017153        5664548
    892.00000000        5177740       -1111363       -4655444       -5995807
    896.00000000       -4588103        -176741        3587615        3711450
    900.00000000        3602716         425936         231442        -319092
    904.00000000         432410        1560122        -949189       -2325251
    908.00000000       -3904215       -1297588         335818        4614639
    912.00000000        4568931        4544746        -654542       -4417642
    916.00000000       -4822592       -4355591       -1838102        3263381
    920.00000000        4538349        3512330          24448         -51343
    924.00000000        -582613         163538        -550867       -1576913
    928.00000000       -2064459       -2533720       -1058428        1332491
    932.00000000        4692160        5973176        3778483        -591946
    936.00000000       -3471753       -5292205       -4892191        -372133
    940.00000000        2348738        5128850        3941628        1626717
    944.00000000       -1844434       -2159670       -1439533        -498531
    948.00000000       -1318443        -788715       -1405004       -1175540
    952.00000000        1495228        2550865        4412626        3214027
    956.00000000         -60328       -4252883       -5251686       -3542251
    960.00000000        -792475        2919337        5672366        4968623
    964.00000000        1244623       -1646186       -2684850       -1913423
    968.00000000        -690685        -232067         152282         410941
    972.00000000        -202832         860895        2663033        3566015
    976.00000000        1405616       -1596528       -3065575       -3536955
    980.00000000       -3759450         799392        2372841        3814169
    984.00000000        3116790         -52564       -2801359       -1419427
    988.00000000       -2273553       -1503679          60467        1916645
    992.00000000        1405162         777587        1965149          67707
    996.00000000        1230231        1442948        -286436       -1591510
   1000.00000000       -4556622       -2314867       -1212647        2129960
   1004.00000000        2916553        4012291         666744       -1594415
   1008.00000000       -3879085       -2663064       -1936900        1526923
   1012.00000000        1123404        1735425        1195805        -811724
   1016.00000000         558546       -1077905         374974          28328
   1020.00000000       -2562994       -2830190       -2505121         376287
   1024.00000000        2929246        2878598        2258369         830744
   1028.00000000       -1431296       -3625507       -3239330       -1269652
   1032.00000000        1477593        2760594        2014473         115101
   1036.00000000         -41566        -911832        -299950         248766
   1040.00000000         176915       -1596821       -2073985       -1327930
   1044.00000000         218226         691067        2332285         412166
   1048.00000000        1993670       -1455348       -2302579       -2231934
   1052.00000000        -616029         854586        2387103        2293542
   1056.00000000        1896910        -795043       -1131332        -138259
   1060.00000000          -1187         571083        -429809       -1169971
   1064.00000000        -509587        -217540         458711        1443851
   1068.00000000        2054755         412686       -1423415       -1969777
   1072.00000000       -1884319        -537527        1168809        2873681
   1076.00000000        1567910        1302892        -458640       -1068981
   1080.00000000       -1599868       -1126549        -380635         682472
   1084.00000000         427038        1095600         -65900         567877
   1088.00000000        1133029        2242381         -67621       -1910195
   1092.00000000        -988394       -2153127        -291646        1955525
   1096.00000000        3500851        2437840        1118995        -896625
   1100.00000000       -1698982       -1393990        -874593       -1108207
   1104.00000000        -513264        1646850        1141753          29378
   1108.00000000        1366296         935919        1141157        -944563
   1112.00000000       -1214341        -971273       -2402873        -482407
   1116.00000000        1185616        2714691        2097321        1085518
   1120.00000000         179402       -1781727       -1740964       -1814512
   1124.00000000        -406652        1188175        2490315        2001404
   1128.00000000         321783       -1087463         -73922         250466
   1132.00000000        -417155        -123591       -1573967        -478495
   1136.00000000       -1221348        1682816        2771201        2093856
   1140.00000000          23788       -1265855       -2388611       -2356359
   1144.00000000       -1383755         962216         315050        2533666
   1148.00000000        1873138         720530        -103143        -913045
   1152.00000000         725657        -775899       -1273922        1047776
   1156.00000000        -637560         -77130         357105        1525743
   1160.00000000        1725519         446886        -945589       -1857514
   1164.00000000       -2531827       -1628574         408201         322134
   1168.00000000        1163531        2168212         891588        -278075
   1172.00000000       -1148372       -1612459        -845823        -299607
   1176.00000000          92206         388047         629510         744507
   1180.00000000        2294800         203977         859924        -721784
   1184.00000000       -1905229       -2468119        -346051        1152279
   1188.00000000         903396        1637154        1078339         705854
   1192.00000000        -661283        -869999         207307         126027
   1196.00000000        -807446        1338184        -271174         412075
   1200.00000000         933037         -43536        -190793         -42309
   1204.00000000        -687021        -792578        -364837        -421986
   1208.00000000        1040034        1222332        2315301         725155
   1212.00000000        -259452        -790889       -1506920       -1432283
   1216.00000000        -745847         972765        1151169         869808
   1220.00000000         133412         896594        -166934         655592
   1224.00000000        -212166         278759        -406783       -1514233
   1228.00000000        -317622         426535        1315158        1536196
   1232.00000000         529152          62632       -1106263        -637479
   1236.00000000       -1013850          45742         -54479         767077
   1240.00000000         750401        1255935         137492        -754657
   1244.00000000         177524        -248273        -647476         -67403
   1248.00000000        -472050         117069         966023         530991
   1252.00000000        1071438        1093775          13390        -332026
   1256.00000000       -1327977        -504738         816545         405910
   1260.00000000         665089        -394990         244923        -303112
   1264.00000000          75872        -229200         187379        -296821
   1268.00000000         -58658        -342343         712556         492392
   1272.00000000         671773         889157         496734        -691508
   1276.00000000        -114975        -541886        -291035        -268192
   1280.00000000         596204         328454         249133         437342
   1284.00000000        -512834        -860509         246882        -194198
   1288.00000000        -298817         496137         190029        1092365
   1292.00000000        1282324         294090         239888        -594059
   1296.00000000        -990356        -466330       -1424116         486263
   1300.00000000        1200522         217662         816355         153618
   1304.00000000         146246         139045       -1024105        -333918
   1308.00000000          90975         106698         -86668        -188031
   1312.00000000         304833         389940        -103722         -36976
   1316.00000000        -906172        -295477        -238805         156124
   1320.00000000        -316459         465655         548204        -579877
   1324.00000000         383514        -108796        -864776        -731492
   1328.00000000        -499061        -365342          22940         511996
   1332.00000000         306286         374160         308752        -423976
   1336.00000000        -609151        -331369        -133688       -1190453
   1340.00000000       -1490094         466753         364273         356339
   1344.00000000         356075         907480        -457490         242845
   1348.00000000        -822420         489824        -319994        -717145
   1352.00000000         396615         395649         925927          37681
   1356.00000000         155697         947552        -545804         306624
   1360.00000000       -1073835         -71505         141174        -398532
   1364.00000000         533977         282097         594334         497554
   1368.00000000        -335669         362442         528941         445844
   1372.00000000         315808          90092         306767         430292
   1376.00000000         566770         -53563         136885         159820
   1380.00000000        -293084         -46155         419458         325495
   1384.00000000          70519        -778858        -520113        -136142
   1388.00000000         682318         286317        -569625         141729
   1392.00000000        -472694         450826         173721         358880
   1396.00000000          73104         -19630         428484        -409023
   1400.00000000         428714        -138620         -18908         305483
   1404.00000000         -57245         303764         345101          24329
   1408.00000000         394230         304421         545869          97981
   1412.00000000        -473200        -267120        -508167        -313749
   1416.00000000         538756         505817         183522         323657
   1420.00000000        -593031         638206        -772950          48549
   1424.00000000           8090        -255547         -98400         144801
   1428.00000000         140415        1079996          90707       -1212296
   1432.00000000          50372        -399892         148858         169916
   1436.00000000         -96123        -388385         236831        -195180
   1440.00000000         816826         543568        -158803         336605
   1444.00000000        -480068          99173         364551        -108158
   1448.00000000         368413         160629         202117         278900
   1452.00000000         738922        -442025        -235637        -398570
   1456.00000000        -451654         119643         222023         149494
   1460.00000000          12075         607971        -396947        -522349
   1464.00000000        -184839        -170098          46715        -483464
   1468.00000000         293478         139139        -386172         555420
   1472.00000000         336576          27156        -410496         -30192
   1476.00000000       -1047423           2622         499026         400330
   1480.00000000         648501         -40039           9483         227965
   1484.00000000        -372347         569962         471215        -134384
   1488.00000000          -4878         176681         144191         307209
   1492.00000000         137245        -214471          68567        1037503
   1496.00000000        -657913        -634711        -258163         360516
   1500.00000000        -308618        -492723         114011         172465
   1504.00000000        -162366         341999         263462        -569886
   1508.00000000          70952        -686115         -35112        -413120
   1512.00000000        -338766         287737          69816         131810
   1516.00000000        -225354         427904          60420        -311202
   1520.00000000        -303308         -80059         549373         464414
   1524.00000000           3948         317359          93494         209411
   1528.00000000         509353        -428902         -64505          37643
   1532.00000000        -344595         325610         -55063          25548
   1536.00000000        -263079          -8329        -363616         -20708
   1540.00000000        -278282        -544859         279967         212138
   1544.00000000          39460         678861        -161580        -324638
   1548.00000000         -98279         -49585         -67203        -224021
   1552.00000000         311079         378989         376115         305179
   1556.00000000         341552         301344         -50124        -158097
   1560.00000000        -341463        -100074           8896         412628
   1564.00000000          -8433         428834         339147         662488
   1568.00000000        -313166        -119555         249800        -301453
   1572.00000000         205253        -483330        -105718         484190
   1576.00000000         405454        -393841        -129332         -86885
   1580.00000000        -477654        -264761        -177317        -227381
   1584.00000000         560902          83182         215500         119045
   1588.00000000         367560        -205693         128290        -272308
   1592.00000000          16813        -146923         231091         450022
   1596.00000000          87056         139622         423036         573004
   1600.00000000         -26799         -78540        -437511        -207063
   1604.00000000        -422219         -61041          60856         204145
   1608.00000000        -101009         -39619        -733834          64852
   1612.00000000         153664        -222773        -348185         132131
   1616.00000000         372188          40785         169550        -160202
   1620.00000000        -248203        -203819        -547883        -334355
   1624.00000000         251285        -187417         304844         520827
   1628.00000000          68393         176794        -573483         272281
   1632.00000000         -59808         111633          84491         -15809
   1636.00000000         251289        -323339         449442          71550
   1640.00000000         380919         252767        -230661         -39849
   1644.00000000        -576285        -458952        -659932          10207
   1648.00000000         366473         -80021          80743          39414
   1652.00000000        -539396        -160037         541900        -301414
   1656.00000000         230133         203510        -228389        -226135
   1660.00000000         223916         109242        -322081          55996
   1664.00000000        -254458        -333781          83303         359222
   1668.00000000         154998         890119         461098        -134361
   1672.00000000         298275         -48546        -285096         419931
   1676.00000000          16362         372269        -299435         103117
   1680.00000000         -99488         189359         -19396         256844
   1684.00000000         -35461        -162046         208317         -73413
   1688.00000000         571566        -479147         379449        -109671
   1692.00000000          61184         339177        -639773         656466
   1696.00000000         548132        -127240         158958          36046
   1700.00000000          35586         404384         -55365        -526408
   1704.00000000         -16314         835903         445394         138277
   1708.00000000          44227        -190758         580259        -189825
   1712.00000000         549301         -31217        -273559        -494570
   1716.00000000         303726        -360069          28867         175893
   1720.00000000         452212          97122         385913         167177
   1724.00000000        -419743           9274        -192795          36227
   1728.00000000         271732        -372202         267598        -110880
   1732.00000000        -199461         183202         166040         364458
   1736.00000000        -118972        -238936         202957         384889
   1740.00000000         443120         -78907         264371         497476
   1744.00000000         -65776        -161069         173495         122957
   1748.00000000         111075         107688         568662         275123
   1752.00000000        -100610        -108232        -193064         304688
   1756.00000000         -40097          68554         133893         -94106
   1760.00000000         627709          58183         353432         -20970
   1764.00000000        -168248         318977         -47684         445801
   1768.00000000        -471413         157020         168285         132935
   1772.00000000          52542         321513         723231         159149
   1776.00000000        -186615          39673         489634        -250269
   1780.00000000         142656         648730        -186829          36231
   1784.00000000         156698         116253        -371847         191463
   1788.00000000         -21737          75312         138432         -75936
   1792.00000000        -259375         134183         282600         -66826
   1796.00000000          33786        -227660        -139210         319409
   1800.00000000         161331         122395         131154         148357
   1804.00000000          97015         -66883         367286         -66236
   1808.00000000          59258         171510        -221945          17226
   1812.00000000         102494        -215652         124624            313
   1816.00000000         462693         -60639          49822         210431
   1820.00000000         463751        -132755        -233233        -424235
   1824.00000000         177499        -199292         -83373         284950
   1828.00000000         307769         247029        -208132         186194
   1832.00000000        -392909          50006          96407         -70907
   1836.00000000           4522          20397          57646         193508
   1840.00000000        -239403        -235600         152650          34176
   1844.00000000         -53603         -32656         216713        -347594
   1848.00000000          62478          35099         -17796         171293
   1852.00000000          47909         184886         373019        -177225
   1856.00000000         287514         323351         277738          57416
   1860.00000000         319134          81021        -160767         148287
   1864.00000000         195214         171379        -167026           9388
   1868.00000000        -458678         -37602         127001         117962
   1872.00000000        -108327         314448           -665         267709
   1876.00000000         -68587         285115         153444         115179
   1880.00000000         103553         284600          95117         543052
   1884.00000000          88093         340854         375523         154584
   1888.00000000        -366407         249887         411975         -45201
   1892.00000000          46289         337569         114073        -142416
   1896.00000000         -15478          -6676          98183          36423
   1900.00000000         -67738         -53980         135178         111871
   1904.00000000         -58624         178463         259617         149293
   1908.00000000         195766        -130473        -202419        -106474
   1912.00000000        -209438         174896          27643         267416
   1916.00000000         281829         102335         -65603        -172874
   1920.00000000         -38430         -41721         370075         -19517
   1924.00000000           -237        -168338         175817         383679
   1928.00000000        -189830         -54521          99393         186292
   1932.00000000        -219157         -59759          54027        -128393
   1936.00000000         -37309         -36016          83827         190679
   1940.00000000        -195920         -36412         -72637        -138426
   1944.00000000        -196924         159690        -137197        -129409
   1948.00000000        -113974         -40441         368406          93810
   1952.00000000         115629          42700         -16014        -202506
   1956.00000000          52992        -110461         334826         161589
   1960.00000000         289867        -237032         478276        -206217
   1964.00000000        -159981        -147544         329401         205061
   1968.00000000         412186          59656          76174          37235
   1972.00000000          96168          43980         -51929         -85539
   1976.00000000         222045        -120303        -267241         423773
   1980.00000000         396748          61275        -254953         120711
   1984.00000000         360638        -128266          67313        -198002
   1988.00000000          77507        -175281         -78369        -172962
   1992.00000000         284824         460447        -119357        -303700
   1996.00000000         153827         163471         123039          -2653
   2000.00000000         115526         379534        -191894         205961
   2004.00000000         122861          -6529          43473         -32845
   2008.00000000         235966         -72307          93720         144369
   2012.00000000          47348          26517        -105399         -89682
   2016.00000000        -290912          21429          53760         312642
   2020.00000000         -17814          24840          98902           1118
   2024.00000000        -157984         -33418        -363370          -1258
   2028.00000000          78577          24556         120364           -551
   2032.00000000         330411          34025         143385           6713
   2036.00000000        -263548         -39749        -156014         110282
   2040.00000000         438470          84991         220759         216316
   2044.00000000        -109453        -152362         -91171        -541709
   2048.00000000        -135703          55454         132018          65198
   2052.00000000         -12414         195528          64586          20718
   2056.00000000         136078         454848        -301948         138477
   2060.00000000         -95876        -180388         260121         392174
   2064.00000000         266486          36112         224084        -361469
   2068.00000000        -411029         -44004        -203323          93339
   2072.00000000         -47820         102183         239215         200055
   2076.00000000        -191037         -25844         -10666        -139366
   2080.00000000         -71621         107221        -126067         -88495
   2084.00000000         370492         143029        -223166         234031
   2088.00000000          14950         469881          87350        -177633
   2092.00000000         142905         171608          77235         -51753
   2096.00000000         201446         245744           2827          64644
   2100.00000000        -232657          -7891         -52344          33140
   2104.00000000         382908         -14644         -75995          87737
   2108.00000000        -123402        -670448        -178822         163839
   2112.00000000        -160002          47837          28986        -128796
   2116.00000000         -27844         101326         130498         151376
   2120.00000000        -271277         158218        -101865         314781
   2124.00000000         178311        -323288         272418        -158044
   2128.00000000         -31494        -317758         -30986         -59163
   2132.00000000           -129          55787         -53401         -22437
   2136.00000000        -175344         265254          68547         285548
   2140.00000000        -229429         -76589         -15033         113310
   2144.00000000          11029         129228          82121         -66029
   2148.00000000        -286076         138508         -46650          40367
   2152.00000000        -196310        -258311          70616         129744
   2156.00000000          24847          77277         135408            187
   2160.00000000          36377        -355141          74474          11065
   2164.00000000         -18848         177075         248065         103743
   2168.00000000        -121141         203404        -184079          17293
   2172.00000000        -297965          40976        -288809           2357
   2176.00000000          42136         -58922          64336        -138700
   2180.00000000        -195128        -174207         284703        -128087
   2184.00000000        -214471         -44013        -132455         194466
   2188.00000000         -94500          42904        -274704         -56747
   2192.00000000         -43494         125791         -96262          50989
   2196.00000000          41879          11823        -218852         136458
   2200.00000000         322310        -147437         107185          19847
   2204.00000000        -108729        -153033        -100809         304806
   2208.00000000        -167084          22333          27304         241856
   2212.00000000          20498        -183068        -105915         145210
   2216.00000000          85595         -20504         225986         216588
   2220.00000000        -137640         367830          45375         -69026
   2224.00000000        -170140          17890          50954         -47581
   2228.00000000         105054         -94613         -14321         -65926
   2232.00000000          86331         207685         106127         252993
   2236.00000000          28879         -81202         132962        -144034
   2240.00000000         174141         170708        -256240         291634
   2244.00000000          26223        -133626          22567          -2500
   2248.00000000        -231744          56304          13479        -117493
   2252.00000000         -25008        -327889        -197760          -6368
   2256.00000000         -21474         -90989         -22643        -141986
   2260.00000000          38241         -14780          16568          -2203
   2264.00000000         259140          27769        -262526        -213075
   2268.00000000         149933        -104227         148850        -146311
   2272.00000000        -217513         -87135          55700         240447
   2276.00000000          31632         271309          10607          -6545
   2280.00000000        -203780          10642          83549        -179797
   2284.00000000         -24578          38989          22848         105856
   2288.00000000         162861        -193453         -20837         -64047
   2292.00000000          28617         131566        -552241          64231
   2296.00000000        -103364         105149        -173899        -217388
   2300.00000000         159923         430673        -141617        -111524
   2304.00000000         256939         169896         -35706         -71393
   2308.00000000        -154251           1938         211846         -79690
   2312.00000000          94136         234863          89007         -24185
   2316.00000000        -140755          96479         158103         -76296
   2320.00000000          87763        -148038         -34383        -124480
   2324.00000000         -78115        -153086         119327         -94957
   2328.00000000         -85928         -65407          93631         124495
   2332.00000000         -31534          82962         178493         -55941
   2336.00000000           8467         105808        -119246        -114917
   2340.00000000           8863         124523         165182          27227
   2344.00000000          69332          33105          27101         -97200
   2348.00000000          49485         132926         124371          25902
   2352.00000000          24520         196051         -20305         234782
   2356.00000000         -62138         -61658          79892         132929
   2360.00000000         169157         -49436         236894          46159
   2364.00000000         -12305          64666        -243243         -88707
   2368.00000000         -63229          48362          -8663         164622
   2372.00000000          10115         102315         -32990         262135
   2376.00000000         183705           4292          29905        -134130
   2380.00000000          99374        -199563          34105         119160
   2384.00000000        -100418          36915         -57174         -81476
   2388.00000000        -114031          44852         150916          76224
   2392.00000000          81562         -77544         120693         -26296
   2396.00000000           5852          60451         -49688         220802
   2400.00000000          29418         254648         -30950          54116
   2404.00000000         105914          90158          60701         -44444
   2408.00000000         -69286         -74722          76428          87616
   2412.00000000         -24228          11348         -21485          31156
   2416.00000000          98151          29130         103420        -155602
   2420.00000000         -39290          27131         -50582         257649
   2424.00000000          12641        -143542          54890          55288
   2428.00000000        -203303         189020           2311         121210
   2432.00000000         -26275          29115         118536          28611
   2436.00000000         123112         136163         171452         124720
   2440.00000000          39375          -5720         -58368        -193547
   2444.00000000         175626         -16657         214002         -58173
   2448.00000000        -106549          53001          86238        -290812
   2452.00000000         167894          15617          -2005         -79095
   2456.00000000          -3705         157206          24279          51995
   2460.00000000          24596          33700          13041         -73329
   2464.00000000        -139751         108060         167226        -121287
   2468.00000000         -31122          65093          48253         177368
   2472.00000000        -171779         162718         264964          50770
   2476.00000000          31242         -28783          -9508         -47476
   2480.00000000         -35990          45986         -93180        -157296
   2484.00000000          49240          60297         -39485          29433
   2488.00000000         110258         -22843         -99116         -58292
   2492.00000000         -54353         -74788        -311841          69672
   2496.00000000         -59770        -188215          52838          17439
   2500.00000000          48298          94339          39292          22706
   2504.00000000         105002          94190        -114705           3367
   2508.00000000          81561           7793         170048         173280
   2512.00000000         -83309          27953          17067          57989
   2516.00000000        -126186          32965           5536          75483
   2520.00000000         -73556          27243         100478          26805
   2524.00000000          45602         112110          21063         -75304
   2528.00000000          14683        -180788          82280          42296
   2532.00000000         105608          65229          94382        -120962
   2536.00000000         125951         -79027         -21241          49663
   2540.00000000         -78809           4179          27300         -76047
   2544.00000000        -132145        -124257         -38948          70419
   2548.00000000          65194         -10705         -63183         -21468
   2552.00000000          26135         -58654         -91573        -160479
   2556.00000000         111887          63227         258625         227601
   2560.00000000         -90566         -75435          15097          83507
   2564.00000000        -119704         -61463         -71726        -157792
   2568.00000000          87293          64650          24544          18276
   2572.00000000        -118662         153612          -4488          38297
   2576.00000000          82837        -187812         -10677          53672
   2580.00000000         171432         114080         132688          86245
   2584.00000000         -40045        -105179          26895          36466
   2588.00000000          14979         163170         -33899           9386
   2592.00000000           2857          76186          31954          82499
   2596.00000000         139459          66588         198697         -17776
   2600.00000000          58684          81366           2193         -74458
   2604.00000000         -65786          26569          34002         -91146
   2608.00000000          72017          22951         160008          34676
   2612.00000000         -22511          34720         -81634          65739
   2616.00000000          60089         106849          -3646          60043
   2620.00000000         -41233        -100424           9178         120261
   2624.00000000          25058         106091         -26772         -28029
   2628.00000000         -29807          -5392        -133856          64742
   2632.00000000          96603         -74241         -75149          36179
   2636.00000000        -160084        -126757          60471          17876
   2640.00000000          75149         -33647         -70842         -95637
   2644.00000000          26903         -58367          40950          19529
   2648.00000000         -17372           -588          -5244          37510
   2652.00000000         170522          53772         -90874          33427
   2656.00000000          11462         102876          63172          18192
   2660.00000000          27364          48057         149543          -8935
   2664.00000000          -8184         -47193          -8259         -21103
   2668.00000000         -22747         -65376          61385         106124
   2672.00000000          27186          50704         -18876        -115538
   2676.00000000        -152646        -182884          46056           5508
   2680.00000000          92693           6247          29297          56431
   2684.00000000         -46815          49099          95336         121869
   2688.00000000          10652          81541          37191         -92021
   2692.00000000          80750          60849           9013           4166
   2696.00000000         -55664         110004         -76954          45055
   2700.00000000          43575         -57874          91112         128470
   2704.00000000           5598          -2641         166096          28920
   2708.00000000           4133          76809         -21411         -61753
   2712.00000000         -55339         -39868         -12885         105855
   2716.00000000         142888         -32832         -82737          23378
   2720.00000000          26304        -111098          24153          -5173
   2724.00000000          97244          27191          45604          88816
   2728.00000000         -77296         -29772         -70765          20942
   2732.00000000          58070           1044            123         151039
   2736.00000000         -17500          94483          50574         -83371
   2740.00000000          63749         -71117         -73593          66767
   2744.00000000          17194          51867           7499         -22738
   2748.00000000        -151943          42971         155641          39985
   2752.00000000          12480         -27028         -48259         -19550
   2756.00000000          26230         -76264         -54600         -82729
   2760.00000000           -824           -746          68444          18387
   2764.00000000         -74609          -5784          88772         -54812
   2768.00000000         -61135          94144          -6742          46723
   2772.00000000         137780         110818          64226         -18759
   2776.00000000          28136         -26560          19394          72273
   2780.00000000         126216         -95193         -11701          -7768
   2784.00000000         -28292          -5398         -50683          78306
   2788.00000000          -9714          58415         -36787         -44382
   2792.00000000          70525          21904          55610          36784
   2796.00000000         -11394          -1784         -54000          53192
   2800.00000000          44867          38624          91430         -61180
   2804.00000000          57959         -16065         106722           9528
   2808.00000000          85496          88123         -89009          52859
   2812.00000000        -145096         -16684          39671        -122959
   2816.00000000          80211           7912         -90371         -46041
   2820.00000000          -7586          66004          50581          50072
   2824.00000000          76354           4427         111889         -21429
   2828.00000000         -47269          27135          42167          -2419
   2832.00000000          35267          95140         -14798         -11783
   2836.00000000         -26995          69479          33115          37407
   2840.00000000         -45703        -112243         -39496         -63509
   2844.00000000         135173         103361         -66002        -140986
   2848.00000000          11441         -28489          39851         -20468
   2852.00000000          -6333         -19108         188023          83829
   2856.00000000         -31279          88002          11454         104216
   2860.00000000          28137         140132          90301          -6044
   2864.00000000          32337          44399          69809         -43745
   2868.00000000         -88967         -74805         -63239          49922
   2872.00000000          -5725          46596         -35732         129630
   2876.00000000         -19635          28504         -81660         -11528
   2880.00000000           4067          34903          65275         110017
   2884.00000000         108192          29735         121558          42240
   2888.00000000          96988         -38236         -56210          35475
   2892.00000000          45668          98857          62388         -49183
   2896.00000000         147049         -19746          30339         -20318
   2900.00000000          59146         -74766          71529         -26063
   2904.00000000         -34798         -29835          17418         -78042
   2908.00000000         -21718          86070         -20005          60118
   2912.00000000         -16837          -1745          10421         -51626
   2916.00000000          70580          32507           -671         -43592
   2920.00000000         -42809         -10439          37708          24407
   2924.00000000         -38557         135267         -24856         -77963
   2928.00000000         -29120         -13471          41376          21732
   2932.00000000         -81877        -103929          58549          48653
   2936.00000000          56554         137870          52297          11781
   2940.00000000          94498          35103         -18602         -26716
   2944.00000000          23472         -10877         -23188          19165
   2948.00000000          25303          56606         -47117          25582
   2952.00000000          39944         -17751          42076         -63282
   2956.00000000          68164           2966          18287          12910
   2960.00000000         -11797          32923         -86243          26953
   2964.00000000          14545           -360          24504          85655
   2968.00000000         122252           4860           6839          42479
   2972.00000000           9664          33037          30259         102875
   2976.00000000         -79347          33905         -39178         -87148
   2980.00000000         -14139          66279          74360          49920
   2984.00000000          37244         140973         -78325          78919
   2988.00000000         -12523         -24108         -24389          16549
   2992.00000000          28724         -32829          -9796          83532
   2996.00000000         -36498          66775           8471         -32642
   3000.00000000          34912        -134706        -119465         -17790
   3004.00000000          -7162         -61594         -63027          30336
   3008.00000000         -10351          83745         -59360          29807
   3012.00000000          41269          66569         -35189         -41354
   3016.00000000          31684         -12893          -1767         -87116
   3020.00000000           3824         -53504        -123886          48748
   3024.00000000           6731         -43203          31727          75347
   3028.00000000          62065          34829          -9083          53419
   3032.00000000          -9535         -36860          70103          17403
   3036.00000000          -1170         -10389          57639          89689
   3040.00000000          17407          96738          53781          10777
   3044.00000000          22833         -38413          -7680          38013
   3048.00000000         -22861         -34695         -56457         -25923
   3052.00000000          17029         -26743           6894         -39596
   3056.00000000         -42044         -36692          79270         -44381
   3060.00000000         -52806         -52099         -44282         105043
   3064.00000000           7906          46024         -34087          43245
   3068.00000000          54578         -19889          70291          -9132
   3072.00000000          41519         132794         114837          31855
   3076.00000000           1267          -5090          20638          69131
   3080.00000000          13504          -4462         -56495          76700
   3084.00000000         -41488         109447         -13877          34446
   3088.00000000          22403         -77721         -45471          62493
   3092.00000000         -18714            853          50893          12234
   3096.00000000          11375         -36430          18882          91531
   3100.00000000          61489         -21704          11073          45966
   3104.00000000         -16014         -40538           8620          41128
   3108.00000000         -17662         -94585          35254          52660
   3112.00000000         -90894         -50653          11573          31214
   3116.00000000         -40056         -37594           7206          85663
   3120.00000000          14996         -38706         -24309          90899
   3124.00000000           1759           7331          47334         -14481
   3128.00000000         -63743         -33226          43728          38064
   3132.00000000          15134          22204          -3879          26756
   3136.00000000          14503         -25570         -33854          -5697
   3140.00000000          30897         -36322          55677          66619
   3144.00000000          77528         -26051         -14760          40603
   3148.00000000          24164         -18927          77626          -1761
   3152.00000000          35179          28861          14059          48400
   3156.00000000          67375         -40935          37114          21896
   3160.00000000           9657          40171         -27299          34839
   3164.00000000           1681          21050         -19229          19885
   3168.00000000          50573          19860          16162         -52310
   3172.00000000         -48884           5122         -61233          30265
   3176.00000000           6534          82288          53531           1122
   3180.00000000          34355          10268           -682          43870
   3184.00000000          90805          21539         -50532           9802
   3188.00000000          29803          37954         -40270           2832
   3192.00000000          34571         -28070         -12952          70894
   3196.00000000          20952          69799          70932          55078
   3200.00000000          38359          11450          68661         -26227
   3204.00000000         -40667          64955         -45360          10197
   3208.00000000         -30666          59532          36641         -18705
   3212.00000000          36922         -37424          -5960          33394
   3216.00000000         -22304          28925           4881          62820
   3220.00000000         -52687          11286         -59739          65192
   3224.00000000         -31678          -8749          67754          29422
   3228.00000000          63348           3060         -16404         -64200
   3232.00000000          35861         -46006         -15749          20671
   3236.00000000         -51669          18609           1609           7334
   3240.00000000         -29398         -26927         -31382          -2688
   3244.00000000         -61224           1343          77937           4028
   3248.00000000           6221          16427         -20276          21863
   3252.00000000         -13324         -11844          -8289          86123
   3256.00000000          13168          80470           5876         -26795
   3260.00000000          28155          32421          34710         -15215
   3264.00000000          -5448          23359          36253          32251
   3268.00000000         -30707          18665          -9660          69838
   3272.00000000          15080          21163          83364          36626
   3276.00000000          -9263         -40928          -2897          30834
   3280.00000000          35811           5234          56106            872
   3284.00000000         -77462         -24867           5577         -71770
   3288.00000000          28747         -42244          -3452          66330
   3292.00000000           3740          19217         -39629          -3463
   3296.00000000           6353         -44615          41125          16452
   3300.00000000         -22807         -64992          12472         -27401
   3304.00000000          -2571          32172          29701         -15783
   3308.00000000         -26151          52221          -1290          36708
   3312.00000000          -9029          29627          35733          25221
   3316.00000000          23037         -15249          33661         -23517
   3320.00000000          18709           9299         -18694          67391
   3324.00000000          27212           3615          25644          -5038
   3328.00000000          26435         -42003          17391          66987
   3332.00000000          35571          44049          24625          29795
   3336.00000000         -30118          60498         -93199         -15395
   3340.00000000         -35382          26255          -7139          15104
   3344.00000000          -4711          53166          -5015          34521
   3348.00000000          15174         -35790         -86901          32917
   3352.00000000          38378         -47271          -7953         -48633
   3356.00000000          34456          31255          -6542          18868
   3360.00000000          13246          34366           8274         -16069
   3364.00000000          38129         -21757          -7529          50393
   3368.00000000          22293         -43580          18088         -51142
   3372.00000000           4439          37914          12260           -204
   3376.00000000          57779         -67247           4265         -11561
   3380.00000000         -27497          13574          49260          45718
   3384.00000000          -4213            902         -51748          82583
   3388.00000000          52361         -31877          25410          -6294
   3392.00000000         -60669           1300           -742          49445
   3396.00000000          41500          30165          -4894         -12301
   3400.00000000          -2259          -1167         -47349          18462
   3404.00000000          -4691          11519          -9531         -17329
   3408.00000000         -21916          14333           1309          57293
   3412.00000000           3729         -42692          -1104         -14498
   3416.00000000          18879          17330          28853          12587
   3420.00000000          -7610         -37866           1765         -20666
   3424.00000000           3745         -20648          -7376          16945
   3428.00000000         -17235          -5875         -79908           7294
   3432.00000000          40956          17011          86579           3805
   3436.00000000         -28012          29356          13306           1540
   3440.00000000           9019          31704         -17205          -7002
   3444.00000000         -40804         -10607           6565          -1618
   3448.00000000         -30265         -32820          -4886           5467
   3452.00000000           3722         -13293          47200         -42294
   3456.00000000          15013         -18762         -49060           6925
   3460.00000000           5440          24198          35833           4192
   3464.00000000         -15220          23464          65372         -45479
   3468.00000000         -21925         -23035         -26398         -17520
   3472.00000000          28274         -17887          39350          22740
   3476.00000000          11479          30587         -17779          13037
   3480.00000000           8353          -6165          -5538          30504
   3484.00000000         -19414           1766          -7159         -36023
   3488.00000000         -31914         -34745          26648          47877
   3492.00000000         -46893          -8723          17538          34061
   3496.00000000          35367         -12232         -17877           1299
   3500.00000000          -4335          31401         -42032          57144
   3504.00000000          12270         -18287          12467          -2592
   3508.00000000          11348          10519          -2314          34958
   3512.00000000           5199          44469          -9419          41403
   3516.00000000         -32594          74640          28992         -27619
   3520.00000000          31470         -15264          60203           8130
   3524.00000000          -3836         -20773          18835          42619
   3528.00000000          25590         -32000         -12161            396
   3532.00000000          -5420          30183          32046          24437
   3536.00000000          12785           2842           8728          -2302
   3540.00000000          36827         -45832         -18240         -42851
   3544.00000000          20090           -872          21289          -2733
   3548.00000000          10427           7341           5510           6723
   3552.00000000           9371           7052         -49418          -2344
   3556.00000000          58999          20844          50970          31861
   3560.00000000         -21265          56405          25426          -4572
   3564.00000000         -19309         -17622         -22120          -9425
   3568.00000000           7655           7354         -10928          -7863
   3572.00000000           7147           -270         -20054          12137
   3576.00000000          28646         -16644          -5891           8765
   3580.00000000          12270          12878          26094          22161
   3584.00000000          14021           3528           8083          76397
   3588.00000000         -31723         -14278         -36386           2592
   3592.00000000          29132          -6347             35         -61044
   3596.00000000         -32933          32349           5734         -19877
   3600.00000000         -43529         -18919          27624          -4132
   3604.00000000         -27387         -27959          29320          13213
   3608.00000000         -31184         -21565          48956          20456
   3612.00000000           8472          36009          -1285           8521
   3616.00000000          -6655          26625          30161           6464
   3620.00000000           6906           4407          38575           -688
   3624.00000000           3453          40348           -371          -5024
   3628.00000000         -25165          -3849          -7549          -5227
   3632.00000000          -8945          17780           6296          12486
   3636.00000000         -15105          -4614          16928         -46745
   3640.00000000          27772          23203          11424         -20258
   3644.00000000          -2039          -6119         -14115         -16178
   3648.00000000          -3780          29977         -12541          14316
   3652.00000000          30912          14030          -1072          15591
   3656.00000000          15323         -19616           2163          23020
   3660.00000000         -15219          16469         -12885           4490
   3664.00000000          15587          -8462          18409          22705
   3668.00000000         -32503          10985          15283           1054
   3672.00000000          18268           5985          22046          21711
   3676.00000000           8467          -1990         -31300          18784
   3680.00000000          19298          16704          11956          45775
   3684.00000000          -8247          -2329          -2553           7308
   3688.00000000         -13449           -431          32194         -19041
   3692.00000000          26199          -6989         -14005          12553
   3696.00000000          29224          53534         -21512           4135
   3700.00000000          -4734          -8560          11863           6242
   3704.00000000          24181           4455           -203          12935
   3708.00000000           3362          11022          28997          34097
   3712.00000000         -23645           8928         -22722            872
   3716.00000000          -7913           3423          38191          32052
   3720.00000000           -123           9481          32197           8404
   3724.00000000          60352         -19283          30113           6561
   3728.00000000          16778          35967         -28473           2648
   3732.00000000         -15406           8762           3532          32580
   3736.00000000          14709         -13967          15622          15320
   3740.00000000          36447          15970         -11382         -26283
   3744.00000000           9606          21232          27303         -24303
   3748.00000000            770          -5598          28695          17713
   3752.00000000          37006           9062          -8337           8373
   3756.00000000          21096           6424          52126          25582
   3760.00000000          16546         -11323         -19116          -2876
   3764.00000000         -17384          32786            978          13637
   3768.00000000          37327         -18937           4482         -13124
   3772.00000000          23543           3436         -17605          34410
   3776.00000000         -14268         -10429          17584         -23871
   3780.00000000         -16476          31511          42873          -7148
   3784.00000000          15818         -31850          -9176          26599
   3788.00000000         -10280          -1844           4028          25825
   3792.00000000          17454          56935           6503          23884
   3796.00000000          -6899          19237          -2937            977
   3800.00000000         -14260           9924          14124          27157
   3804.00000000         -12093          18507           8158           9077
   3808.00000000          -5232           -994          -4607           5153
   3812.00000000          21376           1748          12460           8976
   3816.00000000         -13420         -15051          23649          20444
   3820.00000000            174          -4582          15718          20962
   3824.00000000         -18765          -3753          19532          14992
   3828.00000000          -3843           4606          17037          17418
   3832.00000000          -8694          -4773          23127          -3108
   3836.00000000         -33170          32481          30718          36220
   3840.00000000         -13248           6517           6580          11809
   3844.00000000          21473          21004          11798           1665
   3848.00000000            983         -23989          -1818           4494
   3852.00000000          40207          12431           7097          -1689
   3856.00000000         -15971          10903           4498          -8800
   3860.00000000          -6911          -2860          10068         -20333
   3864.00000000          -8659          12936          -1373          14156
   3868.00000000          17146          -3097          32149          -4904
   3872.00000000          18598          18778          10004          -5493
   3876.00000000         -10348          -7425          13950          -3177
   3880.00000000          -9141          22598         -16234          12854
   3884.00000000          12719          -3677           1348           -461
   3888.00000000         -10306          -8561          -9696         -21903
   3892.00000000         -26180           3460          47054           7789
   3896.00000000          -8199           5946           4963          -7998
   3900.00000000          -4074         -18027         -10630          18415
   3904.00000000            304           2300           2715         -13113
   3908.00000000          21710           8232          21179          -2195
   3912.00000000         -16245          43886            672          28388
   3916.00000000          27697         -10868           3703           5866
   3920.00000000           2848          -8955          -5072          18006
   3924.00000000            168          11251          43377          25930
   3928.00000000         -14764           9086           8216          -7056
   3932.00000000          20886          -2464          -7152           -601
   3936.00000000           1749          21461          11135           1732
   3940.00000000          23218          16245          -9933          30006
   3944.00000000           4164           9871          17966         -10056
   3948.00000000          -6619           4249          11367          20336
   3952.00000000           8626           5977          -2676         -10773
   3956.00000000         -11839           5864          15892          24071
   3960.00000000          -9577         -14650          23691           3201
   3964.00000000          50890         -21246         -10567           5786
   3968.00000000          10959           5058          15896          -5395
   3972.00000000          -7885         -25366         -16226          13606
   3976.00000000          -4960          31905          -1185          28361
   3980.00000000          31844          -9559          -1919           2828
   3984.00000000          -3011           -992          -7407          14141
   3988.00000000          25368           5195           6039          22989
   3992.00000000         -17304          14798           -204          17487
   3996.00000000          17538           -650          -1037          13198
   4000.00000000           5346          17055           1601          -9441
   4004.00000000         -20112         -15365           6149           6498
   4008.00000000          -7817          19988          -6595          10263
   4012.00000000          10028         -12367           2104              2
   4016.00000000          -6880            912         -15121         -22225
   4020.00000000          -2865           1407           6365          13155
   4024.00000000           3213           7225           4705          -2499
   4028.00000000          16475          12553          10074           5129
   4032.00000000          12447           5647            805           6040
   4036.00000000            330          10683          10486          12684
   4040.00000000          -4812           5955          -5280           6514
   4044.00000000          -4169          11165          -5644          10576
   4048.00000000           -684           -169          -5375          -1485
   4052.00000000          25084          -2994          -8656          -6819
   4056.00000000           9029         -10669          -3440          -1980
   4060.00000000          13186          10105           4751         -13428
   4064.00000000           1443          12205         -12770          -4399
   4068.00000000           5629           9709           6699           9839
   4072.00000000          17189         -11409           -724          11254
   4076.00000000          -5028          -3283           6688          13106
   4080.00000000          31656           5284           2334         -16019
   4084.00000000         -24885          13357          24434           4826
   4088.00000000         -17579           -846           4332          -9284
   4092.00000000          -5588          -1639           1373          -8494
   4096.00000000           2877          -1580          12712           6315
   4100.00000000          10162          -7141           3231          36629
   4104.00000000          11944           7572           5951           6123
   4108.00000000          -3160         -11049         -15798          23431
   4112.00000000          -4105          -8473           2939           5137
   4116.00000000         -10083          25532          14691           7059
   4120.00000000         -26091          -6477           1800          13644
   4124.00000000          23734          11333            936           3560
   4128.00000000          -3938          28131          -8557          -6455
   4132.00000000          15963          -5725           5074           2983
   4136.00000000           4769         -14360           1282          17347
   4140.00000000          23827           -423          13413          17117
   4144.00000000         -26019          19420          -2205           3353
   4148.00000000           1104         -31834          -9127            816
   4152.00000000          14684           5643         -14165           3895
   4156.00000000          -8196          15704           2431          10846
   4160.00000000         -19566          10903           5411          -1000
   4164.00000000          24429          15434           -277          -4116
   4168.00000000           7896            121          10538          16484
   4172.00000000          12012          -4379          21548          15001
   4176.00000000           8490          24245          14160          -9085
   4180.00000000           -234          -5438          12104           3367
   4184.00000000          -1194         -16559           8645           9458
   4188.00000000         -12054          -9063           9937           6011
   4192.00000000          -4200          16275           3269         -14274
   4196.00000000           2481           5563         -12101           7804
   4200.00000000          -1053         -19909          27985          -5661
   4204.00000000          -3454          17227           3296           2206
   4208.00000000           5617          14604           4645          -7450
   4212.00000000          -8979            590          -1775           -933
   4216.00000000          10462           8085          -5738          -9186
   4220.00000000          -4969           1059           1813           4900
   4224.00000000          -2955         -10793         -10236           8599
   4228.00000000           6109         -17025           4246          17925
   4232.00000000           5398           1816           5324           9174
   4236.00000000           6039          -8006          12504           8827
   4240.00000000           1910           -562          -5778          -8816
   4244.00000000           8906          10294            853           7014
   4248.00000000          17650          -1591             55            334
   4252.00000000          -7165         -13840           6903          12828
   4256.00000000           8180           7198           3484           8804
   4260.00000000          -5086           3678          13993           8874
   4264.00000000           1960          -1502           4875          -9308
   4268.00000000          -1500          12388          12908           2263
   4272.00000000           6367          10089           -861          -8648
   4276.00000000           1252           6343          18115           1849
   4280.00000000           6674          15049           9448          -3665
   4284.00000000           9104           8428          -2070          19266
   4288.00000000          13571           9482          12038          -2227
   4292.00000000          20780           4438          -5833          21926
   4296.00000000          -4317         -15893           6647            -95
   4300.00000000          11478           3253           4821           9248
   4304.00000000           5338          -8968           2371           7345
   4308.00000000           1730           9786           -963          -5354
   4312.00000000          11497           7828          -7376          15142
   4316.00000000          21269           -201           8755          -1171
   4320.00000000           -759         -11070           8837           1162
   4324.00000000          -2030         -11329         -25176          -2507
   4328.00000000            648          16157         -17816          12635
   4332.00000000            292           2318           2114          18249
   4336.00000000          10570           4378            533           8472
   4340.00000000          -3476           9614          -8779           7990
   4344.00000000          11112          17548           3423           9795
   4348.00000000           1008          -4883              4          16914
   4352.00000000           3912           2632          11697           6459
   4356.00000000           6171           9480         -15756          -4385
   4360.00000000           2579         -10382           8860          -1387
   4364.00000000            515           1914          -9529          -5763
   4368.00000000           6086          10486           7957          16998
   4372.00000000          -6315           9906          21194          -7754
   4376.00000000           6682           7501          -4048           -372
   4380.00000000          10044          11714           2998          -2081
   4384.00000000          -3146            104           1189           4746
   4388.00000000          -1519           6090          -1013           9366
   4392.00000000          -1844          19410          -6193           3778
   4396.00000000          -8682          -6083           2974          14073
   4400.00000000          22771           2051          -2079         -19903
   4404.00000000           6147         -13180          -6758           -304
   4408.00000000          15883           1181           6396           -979
   4412.00000000         -12663          -1017          -6833          12377
   4416.00000000          -2172          -5662           7686          15369
   4420.00000000         -12735          -4903           1354          -1845
   4424.00000000          -5173            361           7610           6376
   4428.00000000           8796          -2642          -4482           -740
   4432.00000000           9038           2421           5001          -3744
   4436.00000000          -8313          -4166         -21441          12314
   4440.00000000          -5437          -8255            880          -3337
   4444.00000000          11806         -14864          -2245         -13294
   4448.00000000          10954           5647          -3255          -9425
   4452.00000000           -212            580           8726           9612
   4456.00000000           6805           4659          -9989          -8309
   4460.00000000          -8916           -215          -5995           2585
   4464.00000000           3794           -436           1891         -11566
   4468.00000000          -5083           9242           9342           3505
   4472.00000000           2657          -7943          11003           8711
   4476.00000000          -5178          -6480          -1109           6046
   4480.00000000           6810           3930          -5476          -5381
   4484.00000000          10339           6978          13766           3789
   4488.00000000          -6366            686          -4890          10722
   4492.00000000           6631           3610            160           5534
   4496.00000000           3143           1920          -6759           1645
   4500.00000000           1013          13365          -5040          -4569
   4504.00000000           1920           3543           2377          -1706
   4508.00000000          -1524           2751          -9638           -530
   4512.00000000           2141           -337           -849           3948
   4516.00000000           9167          -1818         -11570          -7266
   4520.00000000          -2540          -4063            622          -4871
   4524.00000000             29           6425           7568          11206
   4528.00000000           1514           3423          -9511           5676
   4532.00000000          -1514           2895            424           6675
   4536.00000000            887           4483          18937           5917
   4540.00000000          -5242           4676           2753            591
   4544.00000000           4559           5599          -7786           8838
   4548.00000000          10756           7662          -1077          -2827
   4552.00000000          10635           -565          -2040          -2915
   4556.00000000           5605          13535          -4731          -3389
   4560.00000000          -6486            709          -6426           6747
   4564.00000000          -1918          12308           2570          -6754
   4568.00000000           7096          -1798          10526          -3757
   4572.00000000           6096           4360          -5450          -6501
   4576.00000000          -1664          -5045            293            509
   4580.00000000          -2436            189          -8293          -2104
   4584.00000000          -4048           7802           2016            -64
   4588.00000000           2226            257          -6226          -2800
   4592.00000000           -988           -654           7997          -6527
   4596.00000000           2099         -12908           3251          -3678
   4600.00000000          -1129          -6959         -10717          -7722
   4604.00000000           2010           5483           2549           2098
   4608.00000000          -8679           5341          -2156          -2423
   4612.00000000           6969            460          -4132           8192
   4616.00000000           1045            504           3575           2092
   4620.00000000           4467           4231           -569            197
   4624.00000000          -3703          -1257           5365          10507
   4628.00000000          -3488          -7112          -5631          -4311
   4632.00000000           -145            255          -1379          -5149
   4636.00000000           7921            -67           1256           7740
   4640.00000000          -1685           -536          10719          -2406
   4644.00000000           8688          -3347           3677           2355
   4648.00000000           3210           -345          -6546           -548
   4652.00000000          -5202            366           4402           2774
   4656.00000000          -3323          11157           8139          -3535
   4660.00000000           1880           2938           1360          -1393
   4664.00000000           7746            128          -2074          -9755
   4668.00000000          -6147           1208           5603           7270
   4672.00000000           -663           -443          -4582           2566
   4676.00000000            394            -11           1702          -3163
   4680.00000000           1208           -129          -3794          -2002
   4684.00000000           5219          -3608           3510           9077
   4688.00000000          -3278          -1767          -4436          -8240
   4692.00000000           6554           9693           5562             95
   4696.00000000          -5107          -1493            176           8777
   4700.00000000         -11819          -1836           6904           4763
   4704.00000000           8660           5362          -8556            393
   4708.00000000          -1819           7119          -1529           3141
   4712.00000000           6565            322          -1248          -2256
   4716.00000000            656           6162           4369           9845
   4720.00000000         -11471           2384           4286         -16801
   4724.00000000          10640           8434          11728           5934
   4728.00000000           -220           3527          -2339           -784
   4732.00000000          -2937           -424          -4619           5610
   4736.00000000           2412           8268           2413           5698
   4740.00000000          -3546           4253           1494           1106
   4744.00000000           -319          -3905          -1594          -1120
   4748.00000000          -6550           1397           5882          -5283
   4752.00000000          -7420            367           1693            199
   4756.00000000          -3612           1472           1449           3029
   4760.00000000          -1769          12692          -5040           1137
   4764.00000000          -1282          -4734            718           7166
   4768.00000000           -393           9509           7024           7965
   4772.00000000           9231           5214           7773            122
   4776.00000000           2077          -5165           4532           9292
   4780.00000000          -3076           4635           6863           8266
   4784.00000000          -5091          -4071          -1506          -5846
   4788.00000000           5587          -7940          -6101           -251
   4792.00000000           5172          14354           4545           9032
   4796.00000000          -1498           -523          -7853          -2248
   4800.00000000          11763           -678          -4853            518
   4804.00000000          -3131          -4231          -1854           2409
   4808.00000000           3399           1653          10331           2738
   4812.00000000           4871           2333          -1737           2215
   4816.00000000           7766           2879           4394          10618
   4820.00000000           1946          -1005           4802           5370
   4824.00000000           5210          -3410          -4301           5394
   4828.00000000           9898           1161          -5403           4207
   4832.00000000          -4000          -3773           4659             41
   4836.00000000            116            997          -1385           8418
   4840.00000000           8939          -8152            292          -2295
   4844.00000000           3122           3511           2736           3067
   4848.00000000           3939          -3587           4804           3630
   4852.00000000             27           5143            322            259
   4856.00000000          -6227           4551           6287           2076
   4860.00000000           7337          -1586           2779           8319
   4864.00000000          -5380           7514          -1566           5843
   4868.00000000           4745           3420           1822          -9486
   4872.00000000           3066           4770           4757           -751
   4876.00000000          -6753           1748           1123          -6781
   4880.00000000          -1105           7235           -380          -4173
   4884.00000000          -8484           1278           5296          -2243
   4888.00000000          -3559          -2492           1007           2961
   4892.00000000           -968           9536           4122           1065
   4896.00000000          -3672           -719           2587          -2360
   4900.00000000           2270          -4110           8213          -2257
   4904.00000000            656          -1052           6180          -1448
   4908.00000000           6181           3255             54            -68
   4912.00000000           -298          -7581           5035          -3358
   4916.00000000           -296           8155           4001           1094
   4920.00000000           3113          -2149           2878          -1344
   4924.00000000           1222           3769           -216          -1271
   4928.00000000           4422           -444           2501          -2570
   4932.00000000           1644             52          -2190            356
   4936.00000000           3870           1266           -308          -2153
   4940.00000000           7925          -5647           5027          -2320
   4944.00000000           3632            124           -683           2167
   4948.00000000           4692          -3001            692           -951
   4952.00000000            480           1381          -4251           6035
   4956.00000000           5693          -2401            474            203
   4960.00000000           7799           3303            -96           -996
   4964.00000000          -1617           5313           3819          -2812
   4968.00000000           4804          -2915           2889           1589
   4972.00000000           7627           5803            177          -8048
   4976.00000000           1028          -3661           -854           1400
   4980.00000000          -3022          -8423            904            337
   4984.00000000           3972           1948          -1102           2067
   4988.00000000           1689           1819           3043           5043
   4992.00000000          -2950          -4007           3315          -1240
   4996.00000000           -208          -9260           3333          -2738
   5000.00000000          -5492           1154           3278            652
   5004.00000000           7574          -3358            379           -407
   5008.00000000           4816           3003          -2130            427
   5012.00000000           1191          -4113           3211            449
   5016.00000000           2430           5345           3700            293
   5020.00000000          -1964           2874           -433           1429
   5024.00000000          -1353          -5859          -1799            796
   5028.00000000           4101          -2513           3599           1813
   5032.00000000           6838           7123            665          -1539
   5036.00000000           6793          -6273           1105           -129
   5040.00000000          -1974            975            928           6009
   5044.00000000           1484            788           3051            163
   5048.00000000            562          -5129           1734           -975
   5052.00000000           1627          -3344          -2957            141
   5056.00000000          -2709           3752           6979           5611
   5060.00000000            835           -316           4213           3184
   5064.00000000             15          -5311            624           3234
   5068.00000000           4607           1879           4776            163
   5072.00000000            748           6109          -1712           3087
   5076.00000000            594           1265           1574           -269
   5080.00000000            179           4508          -1251          -1845
   5084.00000000           4921            953          -3003            861
   5088.00000000           1696           7377           4124          -3770
   5092.00000000             -7          -7454           6070          -2731
   5096.00000000           1414          -1634          -1680           3600
   5100.00000000           3951           3561          -4474           1594
   5104.00000000           2040           1197           -963          -1615
   5108.00000000           4217           3518           -711          -1537
   5112.00000000            671           4077          -1614           2373
   5116.00000000           2627           3395           4041          -1829
   5120.00000000           5701           -187          -2289           4483
   5124.00000000           1422          -3214           -577          -2000
   5128.00000000           -361          -2781           3972           -507
   5132.00000000           -819          -1726           -987           2657
   5136.00000000           1930           2305           1564           1133
   5140.00000000           -897           2227          -4256          -1929
   5144.00000000           6086          -4081           4147          -3287
   5148.00000000            863           -172          -1204            544
   5152.00000000           2033             39           5230          -1277
   5156.00000000           -174          -1247            285           -359
   5160.00000000           1103          -4674           1431           5243
   5164.00000000           6160           2511           1244            219
   5168.00000000          -5608           3676          -1260          -3009
   5172.00000000           -437           -486          -2197          -2103
   5176.00000000           -814          -5357           -870           -215
   5180.00000000           3146           3403           -451          -1101
   5184.00000000           1837           5582           2329          -2510
   5188.00000000            881          -1491           1301           -903
   5192.00000000           -216             16           2286          -1759
   5196.00000000            806           2622            395           -989
   5200.00000000           1902           1743           -967           2518
   5204.00000000           3162            716          -3749           1646
   5208.00000000           4554           3203           3206          -1017
   5212.00000000           -422           2662           -824            940
   5216.00000000            503          -2426            458          -1594
   5220.00000000            187          -1343           3101          -2534
   5224.00000000          -1568           -271           2049            210
   5228.00000000           1419           -508           1963           3604
   5232.00000000          -1743          -3665            864          -1775
   5236.00000000           4873           1098            706           6419
   5240.00000000          -2691            954           -731          -1167
   5244.00000000           -436           1059             14           1562
   5248.00000000           2354            965            252           2507
   5252.00000000           1614          -1775            612           1313
   5256.00000000             -1            964            693           4699
   5260.00000000             70           -809           5819            611
   5264.00000000           4279            136           4298           2754
   5268.00000000           -143           4816           4427              5
   5272.00000000          -1601           2554          -1166           -392
   5276.00000000           1794          -1109            577           2256
   5280.00000000           1680            915           3392            561
   5284.00000000           1276            757            712           -263
   5288.00000000           -366            308          -3672            576
   5292.00000000           2654           1214           1624          -2123
   5296.00000000          -1324           2167          -2077           -798
   5300.00000000          -3139           1412           5433           -722
   5304.00000000           1570           4855           2170          -1173
   5308.00000000           4599            113            868          -1926
   5312.00000000           5047          -3673           1434          -1697
   5316.00000000          -2708            948           1926           1032
   5320.00000000           1195             40           1790             80
   5324.00000000           -453            800          -1501           -128
   5328.00000000          -2568            815          -1181           1913
   5332.00000000          -3973            516          -1575           2722
   5336.00000000          -1140             39          -3537          -3315
   5340.00000000           -272           1182           1235          -3755
   5344.00000000           2261           1655           1752          -2080
   5348.00000000           5344           -122           1691           1646
   5352.00000000           3053           3198            -97          -6448
   5356.00000000           1642          -2027           -493           2355
   5360.00000000           1387           2389          -3377           -509
   5364.00000000            568           -831            -45            742
   5368.00000000          -1431           -751           -575            393
   5372.00000000          -3529          -2843           2378            321
   5376.00000000          -2237           1750           -210           3652
   5380.00000000           2306           -151          -1379            535
   5384.00000000          -1402             35           -946           1478
   5388.00000000            193           4596            907          -1553
   5392.00000000            540          -5107           -423           1810
   5396.00000000          -1605            404          -1725          -1512
   5400.00000000           2323           1652          -2714          -2059
   5404.00000000           1645            658           2428            526
   5408.00000000          -3464           2065           1315          -1568
   5412.00000000          -1823           1951           5683           -654
   5416.00000000          -1241          -2163            722           3614
   5420.00000000          -1409           2050          -1252           2565
   5424.00000000            -21           1814           -836           -320
   5428.00000000           -358           2135           3296          -1074
   5432.00000000           2841           -531           4568          -1063
   5436.00000000           -503          -2755           1032            683
   5440.00000000          -2585            308           3352            -92
   5444.00000000           2881           1026          -3690          -1015
   5448.00000000           1432          -1260          -1873          -4527
   5452.00000000          -3280           4285           1985           -380
   5456.00000000          -1799          -2208          -1835            636
   5460.00000000          -1393           3113          -2014           2046
   5464.00000000           2696           4343          -1015            -40
   5468.00000000            934          -1210            417           3258
   5472.00000000            611            923             88          -1743
   5476.00000000          -3293          -1310          -1773            936
   5480.00000000          -1074           1566           -746           1798
   5484.00000000           -326          -3413           -105           3238
   5488.00000000           1422            754          -2292           -685
   5492.00000000          -5025          -2019            568           -276
   5496.00000000            410          -2179           1106          -1631
   5500.00000000           -445            713           -964           3304
   5504.00000000          -1478          -1362           -296          -4711
   5508.00000000            898           -580          -1566           3639
   5512.00000000          -1526           -363          -1687            599
   5516.00000000          -1420           3549           -800          -1469
   5520.00000000           -486           -498           2161            508
   5524.00000000          -2569           3441            190            734
   5528.00000000          -3024           3645           1397           2229
   5532.00000000           4051           1693           1762           -637
   5536.00000000           2118           -361            571           2397
   5540.00000000           1268          -2713          -2000          -1809
   5544.00000000            124           1145           1791           1418
   5548.00000000            -69            -46            725          -2617
   5552.00000000          -1463          -1476           2324            144
   5556.00000000           1047           -931          -1187          -1687
   5560.00000000           1319           -688           3276           -488
   5564.00000000            653            968            646           -418
   5568.00000000           -419            770           1447            355
   5572.00000000            739          -1286           1003            149
   5576.00000000           -501           -628           1294           -753
   5580.00000000           1715           -700           -126           1219
   5584.00000000             88          -2924          -2414           1884
   5588.00000000           2770           2893           1347           -995
   5592.00000000          -1440            520           -452            610
   5596.00000000           1408            572           2528           1977
   5600.00000000            467           3730           1865           2811
   5604.00000000           -268            301          -1539           -443
   5608.00000000          -1279           -401            833           2375
   5612.00000000           1372           2886          -1116           2024
   5616.00000000          -2604           4029           -685           -590
   5620.00000000           1639           2791           -151           1256
   5624.00000000          -3150            377           1923          -1211
   5628.00000000           -909            487           1646           -602
   5632.00000000          -2794            515           2285             65
   5636.00000000            520           1203            530           2112
   5640.00000000           2092           1328          -1187           -995
   5644.00000000           3309            687            334            221
   5648.00000000          -1879          -1751             23            885
   5652.00000000           1218           2563           1126            347
   5656.00000000            -27            441           1634            -86
   5660.00000000          -1643           2104          -1175            226
   5664.00000000           -291           2641           1873           -446
   5668.00000000           2737          -1439           1814          -2541
   5672.00000000           -147          -1625          -2386           1401
   5676.00000000           2868            100           1056           1393
   5680.00000000            507            507              9           1865
   5684.00000000           1417            951           -967           2585
   5688.00000000            291            203           1019           1176
   5692.00000000            378            401           1441           -125
   5696.00000000          -3174            914           -206          -1967
   5700.00000000           1387           -814            904            519
   5704.00000000           -829          -1249            719           1064
   5708.00000000            292            822           2178          -3346
   5712.00000000            150             25           -576           -760
   5716.00000000           -135           -854           -315          -2263
   5720.00000000           1086            177            920            882
   5724.00000000           -390           -144           -241           2012
   5728.00000000           -717            100           -243           1365
   5732.00000000          -1133           1608            613           1515
   5736.00000000           3538           -801           -144           1655
   5740.00000000           2719            171           -764            132
   5744.00000000          -2461           1491           -742           -547
   5748.00000000           -606           -211           -430          -2824
   5752.00000000            903           1078          -1335           1248
   5756.00000000           -215           -704           1565          -1136
   5760.00000000             83           1951           1366            144
   5764.00000000            -21           1633            875           -411
   5768.00000000           1725           1727           2222          -2111
   5772.00000000           1996            251            187           1267
   5776.00000000           -145           -334            185            280
   5780.00000000           -298           1831          -2235           1401
   5784.00000000            942            -52            947          -1296
   5788.00000000           2442            524           2667            419
   5792.00000000          -1297            569             34           1581
   5796.00000000          -1280           1810           -926           -883
   5800.00000000          -1295           -893           -268            -15
   5804.00000000           1140            877          -1425            421
   5808.00000000           2023            930          -1761           -912
   5812.00000000           -582             68          -1021             -0
   5816.00000000            587           -608           1373           -453
   5820.00000000          -1513           -140             17            916
   5824.00000000          -1292           1406            280            133
   5828.00000000            658           1239          -1407           1354
   5832.00000000           1047             55           2927            926
   5836.00000000            395           1230            121          -1262
   5840.00000000          -1599            518           -731            672
   5844.00000000           1659            813           -337            602
   5848.00000000            866          -2223           1826            735
   5852.00000000            374           1269            413           -889
   5856.00000000          -2098           1625           -338            798
   5860.00000000            657            436          -2098            704
   5864.00000000           -492            547            109           2621
   5868.00000000           2917           -647            778           -641
   5872.00000000           -148          -2686            231           -694
   5876.00000000            258           1218           2246            866
   5880.00000000            367           -344            776           1022
   5884.00000000            389            605           1144           -275
   5888.00000000           -663           -346            754           2625
   5892.00000000            -68           -561            603           -827
   5896.00000000            738          -2485            817          -1007
   5900.00000000          -2317           1744           -740          -1644
   5904.00000000           -661           1124           -940           -438
   5908.00000000           1174            877           -382           1449
   5912.00000000             -7           1066            471           -150
   5916.00000000            458            441           -442           -552
   5920.00000000            -17            110            190           1470
   5924.00000000           -633          -2096           -938          -1658
   5928.00000000           1593           -805           1601             96
   5932.00000000           1604            225          -1801          -1041
   5936.00000000           -810           2584          -1059             89
   5940.00000000           1820            -14          -1634           -492
   5944.00000000            476           1595            879            102
   5948.00000000            162           -190            333            852
   5952.00000000           1141            745           -523           -535
   5956.00000000            308           -118           2116          -1277
   5960.00000000            256           1218           -811           -423
   5964.00000000           -923            906           -204           -341
   5968.00000000           -931          -1176            755           -130
   5972.00000000           1370            438           -613            517
   5976.00000000            335            572             17           -446
   5980.00000000            162           2012            414            187
   5984.00000000           2525          -3393           -649           -135
   5988.00000000            139            480           1047           1316
   5992.00000000           -388           1772          -2027           1469
   5996.00000000           -481            -12            578             77
   6000.00000000          -1360            910           -691           1458
   6004.00000000            826          -1633           1707           1876
   6008.00000000            -73           1072            665           -226
   6012.00000000            114           -118           -137            -27
   6016.00000000           -561             80            577            225
   6020.00000000           -733            141           -425            435
   6024.00000000           -119            948           -660          -2263
   6028.00000000           1537          -1433           1200           -150
   6032.00000000           -451           1213           -680          -1344
   6036.00000000          -1112           -833            755             98
   6040.00000000          -1834            697           -977           1729
   6044.00000000            267            465            554           2678
   6048.00000000           -411          -1806            -38           1703
   6052.00000000           1513           -661            680          -1023
   6056.00000000            411           1799           1394          -1173
   6060.00000000           -511            181            804            544
   6064.00000000           -816           -128           1082           -357
   6068.00000000            126            459           -353           -387
   6072.00000000           -247           -191            243           1969
   6076.00000000           -414           -304           1094            201
   6080.00000000           -427           2202           1237            385
   6084.00000000           -470           -243            734           1255
   6088.00000000            316           -140            395           1675
   6092.00000000           -568            896             42           -984
   6096.00000000            993           -396           -253           1047
   6100.00000000            805             94           -647            -43
   6104.00000000            334           -955            496            127
   6108.00000000           -886           -540            579            -98
   6112.00000000           -200             82           -619           1114
   6116.00000000            -50           -584            737           1172
   6120.00000000            -32            -12            581           2225
   6124.00000000            553            617           -736           1734
   6128.00000000            345           1324            641            932
   6132.00000000           -571           -273             95           1433
   6136.00000000           -325           -611             97           -708
   6140.00000000           -707            556            785             -8
   6144.00000000            -80           -242            132           -256
   6148.00000000            243            626           -666            774
   6152.00000000            400           1028           -962            179
   6156.00000000          -1495           1187            257           -172
   6160.00000000            137           -616           -121           1186
   6164.00000000            934           -673            857            367
   6168.00000000           -426           -264           1410            -77
   6172.00000000            168          -1624           -797            258
   6176.00000000           1058           -163            708           -243
   6180.00000000            -28            476            416            -71
   6184.00000000           -648            698           1375            326
   6188.00000000           1625             29           1588            320
   6192.00000000            305           -297           -132           -957
   6196.00000000             77           -138             -4           -217
   6200.00000000            189          -1193             25            796
   6204.00000000            425            247           -349            780
   6208.00000000            106            322            335           -150
   6212.00000000            -72            648           -554            527
   6216.00000000           -266           -238            654            257
   6220.00000000            890            259          -1363           1444
   6224.00000000            398           -458            -14           -153
   6228.00000000            109            944           -781            788
   6232.00000000              3            572           1160            648
   6236.00000000           -805           1408            922            749
   6240.00000000           -433           -396           -525           1068
   6244.00000000          -1397          -1522            -27            975
   6248.00000000           1217             66            979            369
   6252.00000000           -557           -266            328           -162
   6256.00000000            228            397            333           -588
   6260.00000000            586           -275           -751            920
   6264.00000000            -15            113          -1038           -114
   6268.00000000           -543            582           -737           -689
   6272.00000000            290            135            444            649
   6276.00000000            413           -667             -3             23
   6280.00000000            569           -383              7          -1626
   6284.00000000            628           -282            283            243
   6288.00000000            132           -688            -27          -1393
   6292.00000000              1            875            909           -359
   6296.00000000             79            521            368           -329
   6300.00000000            116           -684           -428            414
   6304.00000000            -15            368             35            533
   6308.00000000           -255             28           -496            119
   6312.00000000            265           -663           -191            -62
   6316.00000000             67            -88           -133           -109
   6320.00000000          -1026            341            362            393
   6324.00000000            390            856            -57            109
   6328.00000000            751            479           -406           1174
   6332.00000000             74            781            506           -431
   6336.00000000            -13            -33            188            171
   6340.00000000           -103             19           -280            859
   6344.00000000           -976            902            483            110
   6348.00000000            331           1187            362           -504
   6352.00000000            167            115            322            560
   6356.00000000            411           -530            -49           1246
   6360.00000000            993          -1592            599            336
   6364.00000000            669            140           -410           -578
   6368.00000000           -312           -308            -78           -414
   6372.00000000           -321           -459            -77            356
   6376.00000000           1285            715            351           -495
   6380.00000000            333            187           -632           -268
   6384.00000000             65           -108           -156            991
   6388.00000000           1053            270             14           -145
   6392.00000000            369            103           -644            604
   6396.00000000           -113              3           -919           1550
   6400.00000000             -6            965           1360             58
   6404.00000000            183            610           -115             35
   6408.00000000           -494           -567            314            909
   6412.00000000            637            419            663           -344
   6416.00000000            394           -531            182           1781
   6420.00000000           -394           -254            415            134
   6424.00000000           -144           -672           -409            750
   6428.00000000             35           -559            345           -640
   6432.00000000           -860          -1116            673            278
   6436.00000000            638           -360             85           -683
   6440.00000000            887            510           -130            745
   6444.00000000            340             72            314          -1548
   6448.00000000            347           -590            251            751
   6452.00000000            286           -689            140          -1024
   6456.00000000           -200           -544            628           -507
   6460.00000000           -144            588            732            349
   6464.00000000            928           -203            382            114
   6468.00000000            315           -584            -80           -524
   6472.00000000           1106            144            622            319
   6476.00000000            861            986            127            943
   6480.00000000            540             15            666            594
   6484.00000000            407           -804           -290           -688
   6488.00000000            137            554            -14           1043
   6492.00000000           -117            104            481            707
   6496.00000000           -112            350           -603            805
   6500.00000000            226             53            -99            134
   6504.00000000            116           -580            706            454
   6508.00000000             72            789           -470           -406
   6512.00000000            145            -76            303           -771
   6516.00000000             70            993             13            403
   6520.00000000            693           1195           -180           -321
   6524.00000000            179           -273          -1515           -369
   6528.00000000             87            294            277            785
   6532.00000000            134            -22            867           1680
   6536.00000000            380            263            464            259
   6540.00000000           -567            128            603            -58
   6544.00000000           -332            -89             21           -457
   6548.00000000            263           -231           -221           1013
   6552.00000000           -423            240           -987            520
   6556.00000000             15            -89           -595            174
   6560.00000000            501           -471           -133            497
   6564.00000000            -77            949            579              9
   6568.00000000           -184            370            141            -84
   6572.00000000            635            709            817           -337
   6576.00000000            581            170            186           -358
   6580.00000000            596           -183            488             -8
   6584.00000000            550           -103            545            472
   6588.00000000            332            355             79            193
   6592.00000000             30            300           -559            553
   6596.00000000           -308             35             38            -66
   6600.00000000            566           -518            160           -157
   6604.00000000            -87            487           -370            138
   6608.00000000            124            150            653            246
   6612.00000000           -383            567            164            675
   6616.00000000           -222           -220           -362          -1000
   6620.00000000             36            141           -230           -425
   6624.00000000            491           -515           -652            491
   6628.00000000            391            445            908            939
   6632.00000000           -140           -179            592            579
   6636.00000000           -293            766             44           -472
   6640.00000000            -36            599            111            146
   6644.00000000            934            784            630            640
   6648.00000000           -359           -165             -4            145
   6652.00000000            -42            607            259            217
   6656.00000000           -450            754            657            135
   6660.00000000           -122            648            496           -354
   6664.00000000           -200           -103             88            169
   6668.00000000           -137            480              5            217
   6672.00000000            425            -41           -348            174
   6676.00000000           -343           -643            159            351
   6680.00000000            534            -35             57            663
   6684.00000000            -30            429            343            311
   6688.00000000           1001            -68            127           -151
   6692.00000000            107           -247            839           -785
   6696.00000000           -259           -475            -83            184
   6700.00000000           -123            -85           -379            370
   6704.00000000            191           -243           -318            657
   6708.00000000           -491           -323           -224            576
   6712.00000000            456           -103            512           -309
   6716.00000000           -243             36           -221           -103
   6720.00000000             99            -65             -7           -326
   6724.00000000            -27            412            525            404
   6728.00000000            516            -65            437              6
   6732.00000000           -446           -154            -90           -365
   6736.00000000           -229            134             23            243
   6740.00000000           -125            267            114           -247
   6744.00000000            -92            439           -170            622
   6748.00000000           -637           1014            538            110
   6752.00000000             41           -125           -421           -188
   6756.00000000           -120           -169           -535            320
   6760.00000000            918            197            319            365
   6764.00000000            -60            192           -489           -190
   6768.00000000            521            226            -15            118
   6772.00000000            372            407            336           -588
   6776.00000000            248            846           -661            111
   6780.00000000           -281            156             -7            113
   6784.00000000             -7            854           -132           -345
   6788.00000000            115            473             41           -180
   6792.00000000           -249           -381            181            420
   6796.00000000           -237            407            283            -19
   6800.00000000            -91           -269            -88           -512
   6804.00000000             59             26            119             68
   6808.00000000            348            176           -743            464
   6812.00000000           -245           -641            123            149
   6816.00000000            191            -13            -22            354
   6820.00000000           -256            -25            143            -94
   6824.00000000             64           -354           -538            -44
   6828.00000000           -117            286            279            180
   6832.00000000           -114             43            244            133
   6836.00000000            198             50           -102           -376
   6840.00000000            137            345           -367            670
   6844.00000000            521           -105            203            366
   6848.00000000            339           -203           -110           -122
   6852.00000000            114            148            525            507
   6856.00000000           -377           -150           -309           -389
   6860.00000000            489           -281             -5            298
   6864.00000000            214            -37            121            168
   6868.00000000            781           -436            343            391
   6872.00000000            455            491            293            419
   6876.00000000            291            797            148            489
   6880.00000000            556           -100            181            380
   6884.00000000           -106             51            -59            377
   6888.00000000           -193           -252             93           -163
   6892.00000000            623           -191            555            558
   6896.00000000            -89             93           -300            -60
   6900.00000000            328            270            -37              6
   6904.00000000             74            283            339           -629
   6908.00000000           -139             69             27           -389
   6912.00000000            244            108           -224            -79
   6916.00000000            -24             39             69            210
   6920.00000000              4            387             62            218
   6924.00000000            -34            -55            361            450
   6928.00000000           -129            -79            356            117
   6932.00000000           -198           -495            125           -123
   6936.00000000           -276            501            134            384
   6940.00000000            130             63            158            117
   6944.00000000            162           -277            203            -33
   6948.00000000            335            152           -276           -129
   6952.00000000            161           -111            217            349
   6956.00000000           -223            307            277            298
   6960.00000000           -174           -585            129            185
   6964.00000000           -346            149             45            186
   6968.00000000           -213           -103           -379            288
   6972.00000000           -203           -349            509            399
   6976.00000000            516            408            112            -31
   6980.00000000            -62           -328           -140            -28
   6984.00000000             29            409            -34           -401
   6988.00000000           -157           -249           -544             50
   6992.00000000           -396           -384            328             62
   6996.00000000           -546           -320            -74            335
   7000.00000000            120           -375           -298            -22
   7004.00000000             58            280           -203           -198
   7008.00000000             22            306           -448             23
   7012.00000000           -304           -343             45             72
   7016.00000000            292            619             39           -222
   7020.00000000             56           -170            -70            -42
   7024.00000000             86             41            -39             54
   7028.00000000            244             81           -134            -59
   7032.00000000            -18           -119            167             -6
   7036.00000000             80             -2            280            139
   7040.00000000           -289           -176            369           -432
   7044.00000000           -193           -139           -350            419
   7048.00000000            -39           -360           -191            180
   7052.00000000            212           -290            335            246
   7056.00000000            186           -307            499            380
   7060.00000000           -287           -192             37           -210
   7064.00000000            -44            419            -90            385
   7068.00000000            213            219            248            234
   7072.00000000           -132            473            -49            135
   7076.00000000           -341            -12            227           -161
   7080.00000000            284           -103           -169            198
   7084.00000000            -51            448             34            -29
   7088.00000000           -132            -78             79             22
   7092.00000000            124           -273           -121            271
   7096.00000000              6            185           -151            450
   7100.00000000             28           -133           -105             55
   7104.00000000           -134             99             28           -119
   7108.00000000             -1            358            261             54
   7112.00000000            -10            302             59            143
   7116.00000000             66             87           -209           -255
   7120.00000000           -244            364             57            131
   7124.00000000            326            311             61            135
   7128.00000000             26           -249            239            203
   7132.00000000            211            215             18            438
   7136.00000000            164            127            187            -55
   7140.00000000            283           -347           -183            279
   7144.00000000            122            389             18            230
   7148.00000000            242            -52           -156           -147
   7152.00000000             50           -123           -216            -49
   7156.00000000           -193            -93           -261            156
   7160.00000000           -120           -206             -9            125
   7164.00000000             -7           -166            429             42
   7168.00000000            -87            -68             50            126
   7172.00000000             98            206           -102             -0
   7176.00000000           -195           -316            343            116
   7180.00000000           -108             16            364            -28
   7184.00000000            279           -147           -138           -306
   7188.00000000            148            184             38           -314
   7192.00000000            114            167           -152            -57
   7196.00000000           -148            432            -16            142
   7200.00000000            -50            229             92            263
   7204.00000000           -239            204            -25             65
   7208.00000000            124            175            -32            109
   7212.00000000           -151            -13            285            131
   7216.00000000             23            116            -12             79
   7220.00000000            147            124            -47             45
   7224.00000000            227           -325            -21            -72
   7228.00000000             44            162             49             68
   7232.00000000            -86             23            285           -340
   7236.00000000            -81             47           -197            193
   7240.00000000            -69           -146             -4           -177
   7244.00000000           -184           -226           -201           -128
   7248.00000000           -130            384             63            -37
   7252.00000000             54           -139             53            -34
   7256.00000000             29             54             52            229
   7260.00000000           -230            -33           -416            -83
   7264.00000000            119             -3            262           -191
   7268.00000000           -177           -206            -14           -123
   7272.00000000           -107            118            -17             96
   7276.00000000             68             26            248             31
   7280.00000000            297           -129             92           -105
   7284.00000000             20            -35            -48            131
   7288.00000000            -47             -6            -86             30
   7292.00000000           -128            -99            108            349
   7296.00000000            -63            163            -47           -160
   7300.00000000            216            169           -285            130
   7304.00000000            -85            -65             24            118
   7308.00000000             34            116            -15           -281
   7312.00000000            -63            -33            235           -111
   7316.00000000            145             15           -195            150
   7320.00000000            429             17           -312            245
   7324.00000000           -111            215            -38            -27
   7328.00000000            106           -117            159            338
   7332.00000000            -59             33           -145            -68
   7336.00000000             87           -107            -30           -159
   7340.00000000            258             -2              5            -89
   7344.00000000           -197             57            124            313
   7348.00000000            -37             34             34            283
   7352.00000000            407             37            -17           -341
   7356.00000000             48            402            -16            298
   7360.00000000            -50             -4            -64            -91
   7364.00000000            -36           -109            473            119
   7368.00000000            -72           -130             27             67
   7372.00000000           -122            106             14            111
   7376.00000000             56            261            -76              0
   7380.00000000            252             17             46            178
   7384.00000000             17            534            198             -9
   7388.00000000            -78           -164            -28              1
   7392.00000000            -45            -68            -59             22
   7396.00000000           -160             82             29            144
   7400.00000000             79            -33            345            135
   7404.00000000            215            -73           -254            184
   7408.00000000           -117            229            149           -170
   7412.00000000           -182            144            -60           -128
   7416.00000000            -30             68             51             76
   7420.00000000            -33            124            -85            -25
   7424.00000000            -61            -70            -22            219
   7428.00000000            120            130             42             56
   7432.00000000              3             60            -34            194
   7436.00000000             44            254             82            308
   7440.00000000             51            126            -48             43
   7444.00000000           -141             -6            234            -46
   7448.00000000              9            111              3            275
   7452.00000000             -4            -49             38            163
   7456.00000000           -171           -393             48            230
   7460.00000000            173            -26              5            141
   7464.00000000           -191            -61           -114             25
   7468.00000000            -17           -214            -18            197
   7472.00000000            130            -26           -310             81
   7476.00000000            199            -40            -41             -7
   7480.00000000            146             72             -4           -134
   7484.00000000            -81           -214            368             50
   7488.00000000            137            206             73            181
   7492.00000000            143            -70           -140             97
   7496.00000000             12             17            173            -54
   7500.00000000            182           -157           -110              5
   7504.00000000             67             49            -20            129
   7508.00000000            168              4            -21            -73
   7512.00000000            -13            167            173             34
   7516.00000000             14            263             81             34
   7520.00000000            -56             92             72             87
   7524.00000000            -62            226              9           -146
   7528.00000000            -23            -70            208            -70
   7532.00000000           -214              4             18            -91
   7536.00000000            136            169             69           -176
   7540.00000000            -41            295            136            -19
   7544.00000000            -66            173             11             32
   7548.00000000             -1             23           -152            -94
   7552.00000000            -39            -19              5            100
   7556.00000000             -2            106           -106            -59
   7560.00000000           -172             -5            -30            -63
   7564.00000000           -127            111             97            -97
   7568.00000000            -37             -8              3             87
   7572.00000000            -36             -1           -202            -32
   7576.00000000             12           -230            294            151
   7580.00000000            -37           -118             60             14
   7584.00000000            284            105             16            144
   7588.00000000           -139             -8            283             99
   7592.00000000            171            -78            -29             45
   7596.00000000            -53              6             16            -67
   7600.00000000             22            154            227           -100
   7604.00000000            -61            233            124              7
   7608.00000000            -97             79            226             80
   7612.00000000             34           -184            -40             74
   7616.00000000            193             76            -83           -100
   7620.00000000            -76            -17              4            -97
   7624.00000000             56            -40           -169            195
   7628.00000000            -57            116             18            200
   7632.00000000             35           -173            -95           -170
   7636.00000000            113           -254            113           -162
   7640.00000000            -94           -128            174           -141
   7644.00000000            -44            129             99            -33
   7648.00000000            -73             15            195            -64
   7652.00000000           -115           -180             53             75
   7656.00000000             38           -141            124             50
   7660.00000000            -53            -11            187            133
   7664.00000000             29            -84            116           -104
   7668.00000000             46             -2            226           -118
   7672.00000000            -22            -57            -14             -9
   7676.00000000             71            122              6             16
   7680.00000000            -76             76            136             69
   7684.00000000             73            105             79             11
   7688.00000000            161             14            181             47
   7692.00000000            -95           -114           -203             35
   7696.00000000            243            158            101            181
   7700.00000000             10            -69            -80             -4
   7704.00000000            -22            -31            202            142
   7708.00000000             47             20           -168             90
   7712.00000000            151             96           -131             31
   7716.00000000            -54            117            154             81
   7720.00000000            -26             61            -28           -128
   7724.00000000           -107            133            -14             81
   7728.00000000            107             72            -48           -129
   7732.00000000            -18           -135            -58            -40
   7736.00000000             87            164            -25              3
   7740.00000000            163            -28             68            109
   7744.00000000            105             49            -46            -64
   7748.00000000            -28            -70            -32             87
   7752.00000000             -6             -3            182             29
   7756.00000000              7              7            105            194
   7760.00000000            -30            -40            -62           -160
   7764.00000000             21            -68            -79            -99
   7768.00000000            179            -97            123              4
   7772.00000000            189            -27            146           -115
   7776.00000000            181            -27            114           -171
   7780.00000000             49             37           -163           -145
   7784.00000000            -58            -27            181             19
   7788.00000000            -36            -31            -50             74
   7792.00000000             26             86             26            -25
   7796.00000000             65             71           -110            -19
   7800.00000000             80             13            164           -217
   7804.00000000             86            -48           -120             61
   7808.00000000            -33            -65            215             69
   7812.00000000             33            195             13            -38
   7816.00000000             49             89              4             94
   7820.00000000             22            -65           -104            162
   7824.00000000           -109            -84              9            106
   7828.00000000            -13            -86           -174             -2
   7832.00000000              0            142             18             58
   7836.00000000            -84             11             -5            -16
   7840.00000000            -74           -153            142           -135
   7844.00000000              4            180           -166            211
   7848.00000000            -56            -30            125             -0
   7852.00000000             -8            107            -70            -53
   7856.00000000            -56              8             76             40
   7860.00000000            -59             15            -98             87
   7864.00000000             -5           -129             21             31
   7868.00000000            -65            -29             61             82
   7872.00000000             55             99            -58            159
   7876.00000000            -14            207            -14            154
   7880.00000000             17            142             95            -11
   7884.00000000             94            -95            -36             70
   7888.00000000             95            -11            -17            219
   7892.00000000              2            -83            -21             34
   7896.00000000             -5             -1            -14             98
   7900.00000000            166            -24           -177             86
   7904.00000000            -33           -123             30             -1
   7908.00000000           -122            -22            -62           -103
   7912.00000000            -28             27            -78           -140
   7916.00000000             75            -80             55           -108
   7920.00000000            -72            101            137             30
   7924.00000000            -10            119             27             63
   7928.00000000            -30            -33             30             13
   7932.00000000             30             49            -21             27
   7936.00000000            -76             72            -29             52
   7940.00000000             41              8            106            -34
   7944.00000000            -89            -21             71             58
   7948.00000000            -98            -33             55            101
   7952.00000000            120              4             36              9
   7956.00000000            -10            -76             29             10
   7960.00000000            -24            -58           -150              8
   7964.00000000              5             16            114             48
   7968.00000000            -63            -59            -45              3
   7972.00000000           -120             -9             55             15
   7976.00000000            -55             26            -13            -24
   7980.00000000             11            -42            -10            -31
   7984.00000000             52           -100            -22             19
   7988.00000000            -10             85            -32             88
   7992.00000000             62             24             16            166
   7996.00000000             53             17            -19             82
   8000.00000000            -90            101             86            -29
   8004.00000000             15           -109            -40             17
   8008.00000000             27             27             17            -32
   8012.00000000            -25            -44            -22             32
   8016.00000000             96            -60             18             99
   8020.00000000            -13            134            134            -34
   8024.00000000           -126            -60            -95             38
   8028.00000000            -56            -44             18             66
   8032.00000000            104             62            -72           -142
   8036.00000000            -90            -21            -15             68
   8040.00000000            -62              2            149            -53
   8044.00000000            -38            -53            -19            -21
   8048.00000000            134             -5             22             -4
   8052.00000000            -63              5              8             44
   8056.00000000             -3             33             54             -6
   8060.00000000            -23             30            -10             20
   8064.00000000             -2             39             -4             -6
   8068.00000000             38             80              5            -15
   8072.00000000            -66            116            -32             28
   8076.00000000              2             46            -94             75
   8080.00000000             -2            -49             48            -81
   8084.00000000            113             44             82             53
   8088.00000000             -6            -25            -27           -107
   8092.00000000            -23             20             -3             26
   8096.00000000            -62            -11           -100             40
   8100.00000000             18             94              8             23
   8104.00000000             43             12            -24            -54
   8108.00000000            -47            137             76            -34
   8112.00000000            -54            150            -82             19
   8116.00000000             67             68            -63             85
   8120.00000000            -43            122            108           -107
   8124.00000000            -74             87           -108            -18
   8128.00000000             -0            -28             17             35
   8132.00000000            -25             25             20             26
   8136.00000000             51           -103             66             33
   8140.00000000             20             30             76            -64
   8144.00000000              5            -30           -107             17
   8148.00000000             35            -22            -56             -5
   8152.00000000             52             13            -55            -46
   8156.00000000             -2            -59             18             55
   8160.00000000            -37             20            -61             65
   8164.00000000            -66            -39             57             14
   8168.00000000              8             43             48             43
   8172.00000000             63             20            118             32
   8176.00000000             31            -37            -20             51
   8180.00000000             28             20             39             17
   8184.00000000             29            -14             86             51
   8188.00000000            -29            -16              0             83
##PAGE=N=2
##DATA TABLE= (X++(I..I)), XYDATA
      0.00000000      668610589      601820764      543127004      620066864
      4.00000000      614204980      239782043     -445931838    -1122230132
      8.00000000    -1375814514     -994173733      -66842885     1004861019
     12.00000000     1692240344     1581283005      677562515     -551141280
     16.00000000    -1399664005    -1459000067     -825972954        4160472
     20.00000000      551108683      654533138      485933189      307241913
     24.00000000      264791799      291388377      193243579     -178509778
     28.00000000     -732274784    -1133887719     -998025778     -230130189
     32.00000000      830126918     1560888570     1490976652      633018320
     36.00000000     -515138256    -1316394913    -1381547366     -776780064
     40.00000000       82289639      701803532      819526240      522165856
     44.00000000      129021769      -67637115      -31912980       30826275
     48.00000000      -97578192     -432671118     -729321611     -679524062
     52.00000000     -178048721      551443275     1091707332     1083635699
     56.00000000      494348384     -367285463    -1013203400    -1095068149
     60.00000000     -603355661      129086014      662643160      732403963
     64.00000000      418350084       22176596     -166839409     -100825976
     68.00000000       39581937       21921230     -218298407     -509752976
     72.00000000     -566972594     -243285335      345848772      849053042
     76.00000000      923860196      468660977     -271689169     -868331828
     80.00000000     -967177532     -541755249      122792388      618107134
     84.00000000      693183023      393938982       -4480961     -223943080
     88.00000000     -176899946      -11221002       56444468      -81927264
     92.00000000     -324061444     -434638082     -242534767      203538110
     96.00000000      641869631      763691728      437549076     -179216122
    100.00000000     -721159029     -862695038     -525499505       61143925
    104.00000000      539166377      646339767      391644691        3680641
    108.00000000     -239588336     -230151531      -60589705       61345430
    112.00000000        1227907     -194288776     -331524457     -230684469
    116.00000000      119757807      513812629      665067055      421980578
    120.00000000     -109966719     -613089814     -776267239     -505309498
    124.00000000       19542521      473394637      607059049      395292312
    128.00000000       26550079     -247158804     -286696625     -135510795
    132.00000000       33992690       53769447      -82739256     -230032328
    136.00000000     -200534338       57715676      395451280      556345880
    140.00000000      382686903      -54512280     -495076522     -665255874
    144.00000000     -460678343      -13646844      409399354      568150826
    148.00000000      400389594       45414148     -253437141     -324897520
    152.00000000     -174946462       19828835       85767872      -14742121
    156.00000000     -158290273     -170190957       15259255      280649523
    160.00000000      435989364      330239034       -2612113     -380059754
    164.00000000     -564169047     -425169362      -41042317      357358899
    168.00000000      531142355      388705378       52603767     -247527091
    172.00000000     -326740451     -194136189        2769271      102720119
    176.00000000       48399121      -79996273     -134068864      -38158602
    180.00000000      165229291      319670496      282754967       34382155
    184.00000000     -286821911     -468148852     -376385206      -52578109
    188.00000000      297216556      461685735      355675455       66449871
    192.00000000     -204374448     -307787102     -206581592      -12515783
    196.00000000      118621799      103687990      -15210619     -109762246
    200.00000000      -72909636       84358368      236478019      240115012
    204.00000000       57148966     -209751543     -384803973     -333449477
    208.00000000      -76691346      229971652      400164163      333519150
    212.00000000       86260410     -181010156     -298244699     -217995369
    216.00000000      -27215083      123334501      138349629       34290329
    220.00000000      -72440419      -78335289       31995610      164969287
    224.00000000      193976641       67603124     -150433409     -311304104
    228.00000000     -294013632      -93346837      179126309      350554975
    232.00000000      310271699       93514144     -159628448     -293235737
    236.00000000     -238835350      -56348608      113362683      165158576
    240.00000000       90952895      -25318338      -73786665      -14152275
    244.00000000       94305472      146961755       76310746      -93232621
    248.00000000     -239790927     -252491182      -97065110      138254145
    252.00000000      302578564      290953832      104092685     -134862104
    256.00000000     -278562596     -249607006      -86029204       93756143
    260.00000000      171391828      125407291       12670444      -62812809
    264.00000000      -42594012       37859737       96912507       65110165
    268.00000000      -53677874     -172943085     -196020145      -86761619
    272.00000000      104738714      254114237      257242053      106787375
    276.00000000     -108251912     -254537656     -244477224      -97185586
    280.00000000       81544447      177317921      146510209       32084319
    284.00000000      -63155983      -79025767      -13181194       60680193
    288.00000000       65848123       -9482836     -113655495     -157994959
    292.00000000      -85081151       68810977      204722462      226691544
    296.00000000      110780340      -78898372     -220887790     -226413578
    300.00000000     -101453155       67791823      176601714      164036273
    304.00000000       57598015      -59093138     -105002659      -62480645
    308.00000000       16064787       58083633       26627693      -54203818
    312.00000000     -106088113      -75360428       32583500      144046951
    316.00000000      174959930       93874313      -54856981     -179264729
    320.00000000     -193741930      -90218441       64877554      171572900
    324.00000000      166480238       60788216      -62867732     -122732784
    328.00000000      -93171314       -7666241       59238244       57442146
    332.00000000       -5216176      -67325006      -70486730       -4551633
    336.00000000       87153800      129668051       81739884      -31175244
    340.00000000     -140008679     -168008535      -87317350       52859974
    344.00000000      159432395      164553677       74070302      -52534690
    348.00000000     -128320004     -114948230      -31678745       51154712
    352.00000000       79493012       41104232      -25144915      -61429682
    356.00000000      -34196070       35617412       87489787       69943381
    360.00000000       -9207910     -100095751     -132943154      -78346077
    364.00000000       32888891      127496708      145134999       74242992
    368.00000000      -38470652     -114768591     -116869621      -45445837
    372.00000000       42402890       87605590       61855633       -3228127
    376.00000000      -54070629      -47244092        6232531       57503991
    380.00000000       64575246        7279938      -71048003     -109171235
    384.00000000      -77332439       11834299      100688713      130526255
    388.00000000       77175865      -25124282     -107068939     -122480932
    392.00000000      -59028657       32416134       92699701       86338581
    396.00000000       23315343      -40378311      -56738407      -22929724
    400.00000000       30636175       52944488       23880130      -33671411
    404.00000000      -77425971      -67733879       -5030375       72495482
    408.00000000      110759429       74326977      -11906278      -92996483
    412.00000000     -118822412      -70142658       17488521       86378703
    416.00000000       90614476       42608457      -24001049      -60502177
    420.00000000      -45508731         316202       39464231       35037978
    424.00000000       -3327198      -45883619      -54635829      -12009892
    428.00000000       50389454       88155483       69530831       -1989998
    432.00000000      -76600921     -107975135      -71540554        8806486
    436.00000000       76567831       94562084       51451117      -17545256
    440.00000000      -66967597      -63541261      -18809052       29239815
    444.00000000       43693737       19923940      -19926114      -40887377
    448.00000000      -19001577       27959814       63752586       57868113
    452.00000000        7822945      -57248725      -88644323      -66486970
    456.00000000        1218494       65524093       91293333       57957304
    460.00000000       -8194532      -67086969      -72427258      -36489973
    464.00000000       19072484       49900493       39413454        -177147
    468.00000000      -30386285      -29864620        -257351       38158149
    472.00000000       46751551       17834505      -31665324      -65165809
    476.00000000      -54521210       -5541549       54901812       78565102
    480.00000000       54858225       -4694880      -58680633      -74129223
    484.00000000      -41212270       11478757       47850791       50427417
    488.00000000       17141344      -23141595      -38663824      -21323368
    492.00000000       13633920       34528647       23597226      -10937844
    496.00000000      -40798865      -44429914       -8571754       38645476
    500.00000000       66009624       49133653        -738953      -48739840
    504.00000000      -66154553      -41437010        8237241       47214161
    508.00000000       53070280       24080580      -16835424      -39688929
    512.00000000      -33796284       -1762700       27266725       26426733
    516.00000000        2605115      -29911825      -39121596      -13588431
    520.00000000       21231164       49860676       43244297        9173494
    524.00000000      -34366049      -57334904      -41680716         360638
    528.00000000       42755283       57923229       36230577       -8410393
    532.00000000      -40783492      -39982448      -14122851       17998867
    536.00000000       29091697       13257096      -13915966      -29818937
    540.00000000      -21832019        6776132       33316500       38461015
    544.00000000       12902495      -23714922      -48245410      -40360472
    548.00000000       -4361574       34135102       51970651       36610394
    552.00000000          26198      -33046549      -40025253      -20566236
    556.00000000       10503870       27570673       23100822        1495720
    560.00000000      -18179329      -22663807       -2811313       18827935
    564.00000000       29835363       12812332      -16810566      -38939770
    568.00000000      -36134672       -8025772       24896925       45520293
    572.00000000       36397654        4290167      -27708871      -40500632
    576.00000000      -26719568        2347013       28682430       29578385
    580.00000000       11644962      -11687985      -19047076      -10846379
    584.00000000        7954153       19209520       14162600       -7913439
    588.00000000      -26755786      -31207603      -12040572       18765599
    592.00000000       35662750       30955293        6722291      -24843699
    596.00000000      -39087506      -27011396        1196344       23575168
    600.00000000       29575013       15613987       -4873847      -18436898
    604.00000000      -14416606        2979710       15242381       16300084
    608.00000000        1166227      -17476719      -24596912      -12574269
    612.00000000       12299664       30329991       30092100        9886726
    616.00000000      -17630565      -35115804      -29838356       -7972648
    620.00000000       18560762       27265307       21014507         349785
    624.00000000      -15010662      -17025654       -6219272        8562692
    628.00000000       13431924        7359086       -7700672      -17405288
    632.00000000      -11545841        5502788       20831402       23610000
    636.00000000       10626610      -11642107      -27640768      -25505418
    640.00000000       -9351822       12594144       22883192       18190946
    644.00000000        2801130      -11241735      -15692311       -9514813
    648.00000000        2381696        9759576        7190028       -4791316
    652.00000000      -12482658       -9596346        2684293       17207640
    656.00000000       20761015       12574545       -9590239      -23251051
    660.00000000      -23728775       -9121887       11369732       22689048
    664.00000000       20382827        5954092      -11458517      -18896173
    668.00000000      -13968074        -713807        8247100       10119616
    672.00000000        1935762       -6393361       -9064711       -1277707
    676.00000000        9154820       12512861        9046708       -4967401
    680.00000000      -15964292      -17366283       -7311852        6607936
    684.00000000       21507347       17911045        8079008       -6952221
    688.00000000      -14426731      -13160348       -3980448        6471752
    692.00000000        9706494        2651201       -4338330       -5575255
    696.00000000       -2088165        6218191       12189799        8837922
    700.00000000       -1912919      -12958312      -15872140       -9086387
    704.00000000        6131263       16218050       19462426        7936930
    708.00000000       -4534140      -14354740      -12876881       -3218945
    712.00000000        4602257        8736862        5239926        -788545
    716.00000000       -4281859       -3362455        3586896        6072295
    720.00000000        7444511       -1433317       -9295521      -15796732
    724.00000000       -9656331         971438       11413747       14307102
    728.00000000       10132519       -2136257      -10840287      -13447530
    732.00000000       -5258217        2573733        6479832        5596509
    736.00000000         551957       -2219126       -2610417         983913
    740.00000000        6473354        6312193        -271608       -8232652
    744.00000000      -10692418       -8175221        1082396       10638354
    748.00000000       13796916        7732655       -2000313      -10954244
    752.00000000      -12744519       -7347264        1644816        6989847
    756.00000000        7620834        2521262       -1848372       -1794810
    760.00000000       -1344133        3083850        4278133        1717148
    764.00000000       -3553693       -7623347       -5628005        1617609
    768.00000000        7981121       12057633        8500808        -207213
    772.00000000       -8115932      -11096550       -8167398        -459494
    776.00000000        6004758        6981989        3643753       -2314753
    780.00000000       -3324206       -1365831         489613        1368440
    784.00000000         461277       -2974209       -6670449       -4776910
    788.00000000        -326091        7598897       11349414        6136186
    792.00000000         313137       -8420869       -9514870       -6613041
    796.00000000        -296228        6645245        8376455        3887478
    800.00000000         801466       -3941105       -3247390       -1131656
    804.00000000        1693784        -113465        -907501       -3880473
    808.00000000       -3884459         -56400        3915537        7708124
    812.00000000        7067564         730983       -6042405       -9549817
    816.00000000       -7314877       -1085969        3614495        8184851
    820.00000000        6115826         127998       -1833923       -3243800
    824.00000000        -886735        -547423        1106366       -1639358
    828.00000000       -2770744       -1670813        -842541        2827263
    832.00000000        5139372        5103080        -375496       -3919877
    836.00000000       -7533145       -5032854       -2444557        5352550
    840.00000000        6820138        5069799        1502776       -3274055
    844.00000000       -5236171       -3984442       -1403445         955130
    848.00000000        1361625        -499948       -1916295        -305538
    852.00000000        2537144        3540213        5307323         134283
    856.00000000       -3431681       -7219917       -4443189        -625938
    860.00000000        4833714        7558389        4791840        1815573
    864.00000000       -3183570       -3847473       -3569395        -991102
    868.00000000        1730363        1682235        2564003         378306
    872.00000000        -115423        1599777        2981371        2532620
    876.00000000         221758       -3912070       -5012352       -5679984
    880.00000000       -1422448        2127189        5543683        6343617
    884.00000000        1966622       -2626393       -5927656       -3876971
    888.00000000       -1366074        2296990        2217271        1632337
    892.00000000        -517659         331404        1588997        2878841
    896.00000000        1839535        1200499       -2270370       -5028462
    900.00000000       -3644673       -1951899        2616452        5498887
    904.00000000        5066910        2428581       -2136312       -4409381
    908.00000000       -6152777       -2529534         799753        3003057
    912.00000000         939049        1629947        -443580        2423617
    916.00000000        2003091         773904        -253172       -2104248
    920.00000000       -3673039       -4002994        -998107        2879834
    924.00000000        5623154        5707919        3223872       -2474919
    928.00000000       -4555510       -5196996       -2130157        1217171
    932.00000000        3711020        1964335         629080         963916
    936.00000000       -1103110       -1249119        1422219         414111
    940.00000000       -1288371       -1197790       -3132011       -1136795
    944.00000000        3208377        4526013        4938246        1430512
    948.00000000       -2095868       -4449170       -5933182       -3724025
    952.00000000         631873        2378964        3768015        1061069
    956.00000000         549538        -480967       -1264647        -551335
    960.00000000       -1055986       -1201137       -2078718       -2258713
    964.00000000          58217        2029804        4027850        3213800
    968.00000000        1984112       -1962203       -3977709       -5288499
    972.00000000       -1769365        1594152        4066459        3703815
    976.00000000        1711807         -81021       -1189562       -1443154
    980.00000000       -1337624         265371         127331         334597
    984.00000000       -2139213       -1085364         465480        2621541
    988.00000000        2947072        1877305       -2723376       -3612709
    992.00000000       -4410286       -1457744        1388700        4447214
    996.00000000        4562829        3147204        -520309        -990429
   1000.00000000       -2331610       -1097263        -131877         638018
   1004.00000000         254800         186542        -597589         602137
   1008.00000000        1122364         695856        -149023       -1633127
   1012.00000000       -3091443       -3077758       -1724213          53168
   1016.00000000        3372963        3390272        2580410       -1017227
   1020.00000000       -1867099       -3004015        -845447        1098598
   1024.00000000        1110606         477893         485455        -639111
   1028.00000000        -229722         781608        1645385         776016
   1032.00000000          77436       -1568692       -1560538       -1531266
   1036.00000000         337053        1818710        3255310        1970035
   1040.00000000        -906786       -2712790       -2528059       -1638449
   1044.00000000        -320593        1722259        1625020        1298992
   1048.00000000        1014538        -960542         632065         626147
   1052.00000000        1004539         -34667        -779252       -1767212
   1056.00000000       -1411051         -89088        3145353        2370479
   1060.00000000        2228478        -325379       -1929929       -3655369
   1064.00000000       -2116204       -1278200        2564591        2074513
   1068.00000000        1756952        -844404        -724850        -770914
   1072.00000000         -29896         659342        -264888       -1817652
   1076.00000000        -373128        -700620          40966        2378285
   1080.00000000        1736478        1920440        -162931       -1553363
   1084.00000000       -3537466       -1302783        -559131         695478
   1088.00000000        2088537        1850567        1459769         328088
   1092.00000000       -1844647       -1101348        -194171         600863
   1096.00000000         -60946        -752339        -161249        1512235
   1100.00000000        1486687        2071629        1209976        -808765
   1104.00000000       -2049719       -2256996       -1083488        -226814
   1108.00000000        2279705        3237430        1617045         685085
   1112.00000000        -457243       -1331066       -2216418       -2372443
   1116.00000000        -699748         400969        -346983        -201371
   1120.00000000         283139        1389164        1245279         128730
   1124.00000000       -1656192       -2527268       -2057623       -1480901
   1128.00000000         900986        1757433        1697100        1913323
   1132.00000000         666230        -782810       -1221249       -1694010
   1136.00000000       -1121434        1079353         985994        1178683
   1140.00000000         699559         454470        1536517         626163
   1144.00000000       -1369326       -1009269       -1773737       -1374339
   1148.00000000        -686767        -843414        1364211        2260497
   1152.00000000        1910314           -174       -1320630       -2347122
   1156.00000000       -1172225        -711984         562308        1768814
   1160.00000000        1714221        1698270        -200793        -239358
   1164.00000000        -795985        -736790        -162894       -1461588
   1168.00000000       -1230196        -370711         879014        1511288
   1172.00000000        1566318        1368774          95833       -1137483
   1176.00000000       -1958399       -1326366         535368         998724
   1180.00000000        2073154         951058         827176        -404759
   1184.00000000        -745774        -397123          98287        -656221
   1188.00000000        -738269         237702        -912405         363594
   1192.00000000         548602         520425         850294         335691
   1196.00000000        -449842       -2181616       -2340325        -993180
   1200.00000000        1089352         999188        1493878         149832
   1204.00000000         347176       -1256771        -473745         -91428
   1208.00000000         810967         579564         528067        -736949
   1212.00000000        1083413         841452         247394         -21346
   1216.00000000        -744757       -2027787        -788594        -978699
   1220.00000000         327144         492346        1391946         729135
   1224.00000000        1485093          67781        -736263       -1932198
   1228.00000000          27420        -699053         840257         -29612
   1232.00000000         811829         220563         599071         234863
   1236.00000000        -968400        -664368        -556756        -317355
   1240.00000000        -849731        -170982         857405         939555
   1244.00000000         736176         616811        -150370        -616041
   1248.00000000       -1199446        -943494        -607899         331979
   1252.00000000        1481901         396216         986246         311119
   1256.00000000        -219054         541983        -635973         -78628
   1260.00000000        -613235         130564        1611936         -76922
   1264.00000000        1987755          12255        -466634       -1281659
   1268.00000000        -982147        -761044        -423805         947452
   1272.00000000        1109975         680331        -265493        -583107
   1276.00000000        -119624        -415454        -524600        -593450
   1280.00000000        -733336         545331         171197         533847
   1284.00000000         -40721         964495         664499         605561
   1288.00000000        -607023       -1706813        -349567         102712
   1292.00000000        -410493         948049         797514         486479
   1296.00000000         647459       -1030060        -768140        -424970
   1300.00000000        -651940        -215369        -138128         908325
   1304.00000000         524195         464393         327570        -101287
   1308.00000000         253865        -396060        -774286         -29107
   1312.00000000        -386829         166929          21284         312459
   1316.00000000        1091189        -382244          32812        -132170
   1320.00000000        -555691         151555        -380467         126101
   1324.00000000         779733         683554        1688978        -196686
   1328.00000000          34103        -761196        -875690        -441327
   1332.00000000        -774847          48529         289133         678224
   1336.00000000         776184          64342         315688        -309036
   1340.00000000        -366662         372339          39660       -1026090
   1344.00000000         274781         770428        1471653         204469
   1348.00000000         171451         284409         147391        -187387
   1352.00000000         142583        -365217         -32255        -264601
   1356.00000000         677997        -558788         394643         482235
   1360.00000000         225233       -1478575         134296        -337719
   1364.00000000        -392218         254112         855853          72640
   1368.00000000          54783        -468516        -119942        -182698
   1372.00000000          -9783         233797         612022          79212
   1376.00000000         -83258         393339         501778         -18690
   1380.00000000         208079         286322         565209        -169903
   1384.00000000         111703        -501826        -696646         605062
   1388.00000000         -99959        -225263          -9029         187385
   1392.00000000         149687        -304058          71821         534697
   1396.00000000        -266670        -849858         269984         828056
   1400.00000000        1221039         287664         351345           9773
   1404.00000000         491785        -456211        -549800         245651
   1408.00000000        -661261        -387280         305356        -257260
   1412.00000000         251120         129102         583203        -215830
   1416.00000000         -19145        -170001        -352012         149103
   1420.00000000         171453         109409         392186         -50470
   1424.00000000        -124603         465405          97941        -771862
   1428.00000000         392706          -9556         153026        -235236
   1432.00000000         158556        -628392          14617         493369
   1436.00000000          19765          63928       -1087137         118713
   1440.00000000        -492048        -485075         505110         179903
   1444.00000000         -76660        -393409         598965         345588
   1448.00000000        -421733       -1571005        -349978            295
   1452.00000000         519312        -265300          81323         -89409
   1456.00000000         422318        -214986         340160        -111825
   1460.00000000        -302942        -203531          79722          48509
   1464.00000000         186769         296645        -368049         485941
   1468.00000000        -703727         307264         -48151        -645904
   1472.00000000         349148        -346998        -333828         391314
   1476.00000000        -312528         350789          64706         484594
   1480.00000000         387574        -131180         470368        -508365
   1484.00000000         314638         459610        -162942         212393
   1488.00000000         223883         368308        -141983         164703
   1492.00000000        -193279        -474297          67054         -48505
   1496.00000000         594229            537        -563809         251184
   1500.00000000        -218629        -240622        -618620          62005
   1504.00000000         520849        -410144        -121690          29564
   1508.00000000        -383007         203042        -394396        -210402
   1512.00000000        -297667        -197274         -26557          62921
   1516.00000000         606890        -483791         105504         331376
   1520.00000000        -172344        -200483         172542        -112201
   1524.00000000         115889         105186        -135758         332562
   1528.00000000        -190369        -104662        -644937          59293
   1532.00000000        -202858         136891         109739          93625
   1536.00000000         232386          -1591        -500587          31519
   1540.00000000         316679          65581        -312037          62124
   1544.00000000         381264         548355         118034         705257
   1548.00000000          87880         -93020         131826        -177889
   1552.00000000       -1049812        -257338         115061         -30199
   1556.00000000         -98747         476399         242296        -300823
   1560.00000000        -424368        -152997        -410097           9615
   1564.00000000        -200218          31127        -402805         413846
   1568.00000000         252513        -300975        -315605        -753910
   1572.00000000         -52032        -554112        -333230         257900
   1576.00000000          89890         -91376         510976        -179040
   1580.00000000        -239147         -26366         215432         232940
   1584.00000000         182335           3497        -438933        -199255
   1588.00000000         636136          65364         689946        -126478
   1592.00000000        -239670        -470186          80129         148029
   1596.00000000         100067         455915          54264         335340
   1600.00000000         462475        -101365        -434820        -432591
   1604.00000000         333522         -67112        -206819         299620
   1608.00000000         -39075          30700          89272          63237
   1612.00000000          79151         -43157           3272          39853
   1616.00000000          92279          31416         153653        -462851
   1620.00000000         172191          -4756          16797         443683
   1624.00000000          36059        -309672        -378921         -36327
   1628.00000000         -83032        -174661        -146565         -65006
   1632.00000000         153354         310999        -473133        -625019
   1636.00000000          -2758        -286735         341879        -116876
   1640.00000000         299194         200499         355016         269793
   1644.00000000        -420703        -150602         195164        -213444
   1648.00000000        -231652        -249110         157617        -219236
   1652.00000000         -19274          47677         326331         308955
   1656.00000000         518921          92732        -273285        -159265
   1660.00000000         588682         173232         135613          40732
   1664.00000000         372934         112371        -321443        -391668
   1668.00000000          96862        -231117         253771         197652
   1672.00000000        -175357         112469         147132        -181351
   1676.00000000          80771        -541760        -575152        -222370
   1680.00000000         156558          41242         411041         -29060
   1684.00000000        -196824        -520688        -590008        -299123
   1688.00000000         141668        -188712          30572         167147
   1692.00000000         511996         893234         136200          89556
   1696.00000000          65218         611923        -347616         -63562
   1700.00000000        -487789         203791          -5129         -11445
   1704.00000000          25188        -128011         550291         238299
   1708.00000000         161173         225436        -124354         251610
   1712.00000000         419647         100467         189350         -48365
   1716.00000000         -65570         238485         105910        -171523
   1720.00000000        -238517          53737         -70317         220464
   1724.00000000         423814         678614        -212184         393470
   1728.00000000          16179         506639        -421074         -26132
   1732.00000000        -388938        -157551         130263         124287
   1736.00000000         584972          18674         -91509         255852
   1740.00000000         -20821         195388         -48593        -127791
   1744.00000000         533508        -350044        -317860         271337
   1748.00000000         155249         535536         -70611        -238023
   1752.00000000         412173         -35590         475963        -356601
   1756.00000000         147635          38801        -106624          32942
   1760.00000000         511426         472909         -19805          83864
   1764.00000000        -228986         -79359         366695          93649
   1768.00000000         273970        -106810        -294702         286510
   1772.00000000         176486         -73044        -182127         410503
   1776.00000000        -420746         263808        -129627          96061
   1780.00000000          93232         217460        -208819         -93946
   1784.00000000        -130168          32192         165899          75300
   1788.00000000        -316062          85124        -213560          96334
   1792.00000000          21718         254379         268270          98612
   1796.00000000         -77618         -24486        -234654        -443579
   1800.00000000        -795591          45565        -184074            954
   1804.00000000          91095         196950         -38487         306808
   1808.00000000        -267067         283754           7203         137483
   1812.00000000         166277          37012         351987          51027
   1816.00000000         248198         253701        -152905        -174364
   1820.00000000        -120296        -126102         126754          38711
   1824.00000000         286099          72784        -164133          -9117
   1828.00000000         -17708         283383          70856        -165742
   1832.00000000        -213295         189804        -200008        -237796
   1836.00000000         116328        -293535         172957         328007
   1840.00000000        -279428         -28503          54739           5629
   1844.00000000          27704        -266490         234874        -145721
   1848.00000000         201557         281929        -161601          82431
   1852.00000000         514484        -447393         144596        -120259
   1856.00000000         275338          49544         -82908         315016
   1860.00000000        -232346         164171         -62186         112122
   1864.00000000         182609         -11974        -101045         254194
   1868.00000000         118294         329239         258880        -336626
   1872.00000000          17060          72399          14565         322233
   1876.00000000          62140         398269         267902         144796
   1880.00000000        -207581          47997         -67626          65266
   1884.00000000         299846         -87924         -37741         404050
   1888.00000000         -41217        -256842        -347031         123957
   1892.00000000         -74261        -309341        -361759        -497750
   1896.00000000         -71448          25064         -22297         276660
   1900.00000000         -71974         -20026         216880         -49278
   1904.00000000        -237209         371846        -426889        -354420
   1908.00000000         284023         107875          29776        -221027
   1912.00000000        -225034          57181         171327        -285521
   1916.00000000          21275          17695        -211044         108449
   1920.00000000        -170118         228164        -103065        -374298
   1924.00000000         209758          -7213        -164699        -221947
   1928.00000000         220564         -54057           3939         375722
   1932.00000000          67124         224701         377640           1130
   1936.00000000         175426          95365         166186         104334
   1940.00000000          51703         -50736        -183238         160954
   1944.00000000        -436157        -107267          99986         -15557
   1948.00000000        -365817         205305         -57724        -166726
   1952.00000000           8548         -97652         167063         -54121
   1956.00000000        -322900        -181527         122199          41360
   1960.00000000         -14188          18966        -327121          51281
   1964.00000000        -186116        -272726           7115        -266123
   1968.00000000        -335782         277933         157078         308524
   1972.00000000         222805        -229183          83775           5568
   1976.00000000         361789          -4243        -293698          83883
   1980.00000000        -146373         169912          92376         191542
   1984.00000000         173446        -293411        -199693        -217515
   1988.00000000          44908        -219955         -70147         263464
   1992.00000000         -96803          47411          17574          75007
   1996.00000000          -4989        -137275        -163726         178540
   2000.00000000         120310         153519          89603         -34104
   2004.00000000          42278          20411        -245593        -159647
   2008.00000000          83363          55149         -55087        -156256
   2012.00000000         304520         214281         155823        -280814
   2016.00000000        -377326        -165795          18840           -959
   2020.00000000          77994         107263         164074        -136105
   2024.00000000        -192061          89227         252650        -163727
   2028.00000000        -179087           8952        -150886        -148108
   2032.00000000         211330         258441         226830        -386921
   2036.00000000        -211540          31253        -138489        -173217
   2040.00000000        -197184        -142743          -2922         135332
   2044.00000000         127802         272797         -53361          12367
   2048.00000000         -75759         -32103          81739          74758
   2052.00000000        -165826         -23809         296154          21554
   2056.00000000         109797          50813         -85102          -2939
   2060.00000000         282029         131422         311185         147877
   2064.00000000         127950         129633          41084         296770
   2068.00000000         163961        -113278        -105591        -179715
   2072.00000000         -35498         -40879          24427         307267
   2076.00000000         136164          72057        -116707         -36611
   2080.00000000           4300         -40620         123529         -73681
   2084.00000000         158428        -115344         333270        -130886
   2088.00000000        -121047         419233        -141002          96054
   2092.00000000          39694         139408         -86554         -80105
   2096.00000000         -34353         126889         -56812         -81078
   2100.00000000         105169         -93903         -98661          -1348
   2104.00000000         204533         221349          97234         292821
   2108.00000000           5086         -57449        -356319        -146732
   2112.00000000         212197          -3117        -266838        -241085
   2116.00000000         295940          60079          72235         246223
   2120.00000000         186939         -20214          48506        -507614
   2124.00000000        -250314         185699         122170         217424
   2128.00000000         168600          72118        -100108        -112660
   2132.00000000        -212173        -146080         205050        -303800
   2136.00000000         163996         258064          44332         203273
   2140.00000000         134788         -40141        -153307          44975
   2144.00000000         -48016        -180756         -54900         -46507
   2148.00000000         -10287         -75321        -103790         286515
   2152.00000000         -19909         -83814        -174419         -33774
   2156.00000000          75464         196022         277686         187067
   2160.00000000         -10682         -43208        -146358        -101057
   2164.00000000        -158655         -82513         171170        -220921
   2168.00000000        -244076         110816          45136          94866
   2172.00000000        -290531        -367215        -140477         -40108
   2176.00000000          -4767         134315          -2116         211837
   2180.00000000           1735         118230          -2380        -206705
   2184.00000000        -184662         134416         -76956         107171
   2188.00000000         137435         153505         292158         189175
   2192.00000000         188265        -317150          38204         -10497
   2196.00000000         143138         -27057         141986          71748
   2200.00000000         132485          54293        -131610        -113831
   2204.00000000          87743         170122         112802         -84671
   2208.00000000          36068         -22039         224114        -121408
   2212.00000000         269490         -30952         163581        -217163
   2216.00000000         117431         179780         -25658         -32897
   2220.00000000          28334         -32341         259255        -105025
   2224.00000000         186206         114214          22923        -239939
   2228.00000000        -105830         -23337          62369         384048
   2232.00000000         121182        -270051         272912        -242754
   2236.00000000        -131780         -40921         -23291         274255
   2240.00000000          77296          23433         217486         206812
   2244.00000000          48325           9746         -40117        -127668
   2248.00000000          66611         112089          87628        -121684
   2252.00000000          -4298          83261         -64186         128648
   2256.00000000        -111037        -123350        -232643         -14105
   2260.00000000        -132399          11991        -167930          88616
   2264.00000000        -134810        -253163         135027          33506
   2268.00000000         -88071        -200862          12083         -99664
   2272.00000000        -144764        -242601          99508         227403
   2276.00000000        -144074          42301          47735         104224
   2280.00000000         -94316         165700         108035         -78739
   2284.00000000          97794         -59238         165275         153749
   2288.00000000          69884         -77671         166097         168533
   2292.00000000        -109865         -62578         385144        -172215
   2296.00000000          67771        -124449         -78403        -104334
   2300.00000000        -100148         172310          83763         146083
   2304.00000000         115176        -181603        -203858         -88988
   2308.00000000        -130680           3234          45501        -141342
   2312.00000000        -125645         106353         -89373         -13349
   2316.00000000         119864         284708         -80118         -72947
   2320.00000000          79242         126161         217283        -234215
   2324.00000000         -16156         -30675           4404         -33663
   2328.00000000         124678         443877         200797          48954
   2332.00000000          88471         100494         -63939          50131
   2336.00000000          25697         -19501        -304083        -202104
   2340.00000000          50376         203799         -70292         -40815
   2344.00000000        -185188         200495         -41341         -75739
   2348.00000000          32007         -48355         101566         303840
   2352.00000000         -23236           5709         160661        -187665
   2356.00000000         -69223        -159897         106624        -138465
   2360.00000000         -57442         -40718         156436         191822
   2364.00000000         118773         -38255         144557          29031
   2368.00000000          38326         132575          36668         261349
   2372.00000000         -44327          75342          24963          69777
   2376.00000000         -55582         -80912        -276032          88053
   2380.00000000         -26785         -53027          94673          69084
   2384.00000000         -98342          68623         155905         107089
   2388.00000000          -6427        -252157          63031         260883
   2392.00000000           5818         195315           8346         -28071
   2396.00000000         148542         108833          12438        -135511
   2400.00000000        -113906         110176         142248          12542
   2404.00000000          21732          86465           6988         172871
   2408.00000000          38008         -24624         111205        -139246
   2412.00000000         -15470          14699          51640         219947
   2416.00000000         224384          16186         -94157        -224832
   2420.00000000         -65699          -1964         137084         135798
   2424.00000000        -116055          54538           4217        -134827
   2428.00000000          78172         -28470        -131905           1035
   2432.00000000        -232604         161638         145456          54755
   2436.00000000         -37543          11861          24937         106493
   2440.00000000         113522         -46034         103448         136974
   2444.00000000          51179         144913          35982        -103855
   2448.00000000         -71445          40223        -156040          -9329
   2452.00000000         -74885          62332         -88739          77200
   2456.00000000           2313          20455         198988         -65189
   2460.00000000         -70022        -126036         -34527         -45181
   2464.00000000         -49361          33749           4437          16011
   2468.00000000         169448         123677         -24216         130945
   2472.00000000         -34131         115977          36155          41833
   2476.00000000          36882        -105720        -102730        -138412
   2480.00000000         -23097         -34905         102776          94604
   2484.00000000         -48753           -827         -91916         -37518
   2488.00000000          -7665          46854         -73736         -95571
   2492.00000000         -63393        -171993          -7090          19417
   2496.00000000          41596          25518         105497         168524
   2500.00000000         -65679         214263        -141129         121296
   2504.00000000          51088          19436        -168180         -50416
   2508.00000000          74552         129807          64834        -132355
   2512.00000000        -159626        -159430        -187587          -8129
   2516.00000000           7895         -72744         -32617          21428
   2520.00000000         222139           6798         176341         155543
   2524.00000000          80417        -166046          52044         -15307
   2528.00000000         -40730          31125         130616          24969
   2532.00000000          -3657          91259         -15112         -73534
   2536.00000000          26744          50293         -92390         100315
   2540.00000000          -5207        -134371         -58521        -172355
   2544.00000000          43894          59732         -93421        -221939
   2548.00000000           6075          70297          87978         115718
   2552.00000000         134436        -149772          36987          15159
   2556.00000000        -120453          97486         -91465          81597
   2560.00000000         165615         156639        -146033           3066
   2564.00000000         164486           2836          78240         -73489
   2568.00000000         -97914         -99886         -11005          69995
   2572.00000000          78995         121627          -2300         -24966
   2576.00000000         -38284        -186675           3428         144418
   2580.00000000         126796         165744         160209          84575
   2584.00000000         -83661         -19091          31519        -155680
   2588.00000000          65055          51948         -40530        -140892
   2592.00000000         -61630          10602          44871          41780
   2596.00000000          50103        -215660        -149505         -96900
   2600.00000000          63470        -102075        -103212         -32167
   2604.00000000         -90350          71097        -121201           5797
   2608.00000000         165233         -47101          51267           4583
   2612.00000000        -193126         -14101         -15498         -59390
   2616.00000000        -208517          11830          62648          21545
   2620.00000000        -163622           6199          88954           9601
   2624.00000000         -27637         -35784         -36902         -52491
   2628.00000000          24611         104372         -11559          14091
   2632.00000000        -197265         -57689           1077          22309
   2636.00000000         -52095         -29632        -126474         -34986
   2640.00000000         121980         159988          87161           9426
   2644.00000000         -26411        -168791         -59307         -23657
   2648.00000000        -116799         -28032          66656          73229
   2652.00000000         -83646         101412          20829          44922
   2656.00000000        -150827        -111640         -69048        -104637
   2660.00000000         100270          41957         -41110         115988
   2664.00000000           6268         -97247         -46586         -13117
   2668.00000000         -60663          21997         -39976         122208
   2672.00000000         -88511          -1305          66702          75761
   2676.00000000          24317           4166         -68632         -24076
   2680.00000000          30217         -50219         -66001          66184
   2684.00000000         132229         -38257         -65541         251129
   2688.00000000         -57127         -23520         -33439        -154316
   2692.00000000          50944         -22556          62510         130915
   2696.00000000          23215           8138         135309          31072
   2700.00000000          12057           4621        -114253         -92172
   2704.00000000         -46836          62863         -47102         -20613
   2708.00000000           8350          -6527        -134580         -19869
   2712.00000000        -112789          67547        -183341          -2020
   2716.00000000         110720         158050        -148650        -114431
   2720.00000000         -31392          40440          41607          70856
   2724.00000000         -29603         129609          61014           5863
   2728.00000000          54301          79015         -28860         -37307
   2732.00000000         119431         -61725          99882         -44396
   2736.00000000         134353           3122         109253          -9756
   2740.00000000          26457         -57080          62561          14884
   2744.00000000          94736          70908         -84808          59721
   2748.00000000         -48774          19716           1372        -142505
   2752.00000000          82466         188066          76240          62390
   2756.00000000         129763          87101          90437         -47181
   2760.00000000          38343        -145438          -3205         144472
   2764.00000000          46262          21113          23799         -47406
   2768.00000000        -115607          18695           2935          75589
   2772.00000000         -81665         -30702         -13622          51934
   2776.00000000         -29202         -55012          15236          47240
   2780.00000000          -4163         -41103          16273          69794
   2784.00000000          29097         -10381           6749         -60091
   2788.00000000        -115560         -69304          58866         128088
   2792.00000000         -12440          29605         149128        -140094
   2796.00000000         117282         -62496         -35744        -128139
   2800.00000000         -43232         -37506         -43920          52955
   2804.00000000         -11262         -81570         152274          68756
   2808.00000000        -130143         -72445        -189210         -26115
   2812.00000000          26436          30953         157536         -66817
   2816.00000000         -71004         -37538         -42322         110191
   2820.00000000          70025          38667           6359          32150
   2824.00000000         -23670          22012         -48708         128623
   2828.00000000          86359          61370         -82081          69197
   2832.00000000         -71646         -58552         -91684          53116
   2836.00000000          34016         -21855         -82911         -97955
   2840.00000000         -22620          10618           1106         135580
   2844.00000000          63235         -84512        -130808          29365
   2848.00000000          57658         -18463          52091         -80129
   2852.00000000          30852            331           5123          46809
   2856.00000000         -17035          61727         -65960         -19922
   2860.00000000        -155409          54012          19018         -50543
   2864.00000000          33566          86255          42566          17174
   2868.00000000          62025          94897         -14661         -67231
   2872.00000000          15767         -69687          -2576          18101
   2876.00000000          45552          -5389         -24696          94613
   2880.00000000          21377          52649         -64646          -5227
   2884.00000000         -55464         -58878         -22999          40997
   2888.00000000          34311         -65143         -19445         -20220
   2892.00000000         -79056          63073          -6385         -17775
   2896.00000000          78752          81655         -17793           3189
   2900.00000000          17531         -41257          -8577         -71604
   2904.00000000          22049          49159          69018         -43414
   2908.00000000         -27463          36315          -3008          34255
   2912.00000000          -4322          48403         -11164          35277
   2916.00000000         -68602         -72073         -11743          -8866
   2920.00000000          67938           1386          -4280          41813
   2924.00000000          28646           4475         -87264          46891
   2928.00000000          66596          37605          25445          29176
   2932.00000000         -62473         -53382          54672          -3030
   2936.00000000           4362         -18677         -55325           1544
   2940.00000000          -7470          87479         -22626         -25454
   2944.00000000         -97578         -10984           1296          39697
   2948.00000000           8331          -1195          37186          39375
   2952.00000000          19653        -108071         -74186          -3230
   2956.00000000         -21547          11582          25965          57943
   2960.00000000         -71311          70257          87144          41217
   2964.00000000           4384         105584          40085          18850
   2968.00000000          29602          70470         -84419         110544
   2972.00000000         -55218          23653          38526         -45366
   2976.00000000         -45848           6916           1026          54839
   2980.00000000         125518         -44066          33710         -50634
   2984.00000000          41749           1489         -47339          33813
   2988.00000000           1751          53298         -16111          52614
   2992.00000000          62740          85558          21685          82588
   2996.00000000         -28004            891         -18725          63617
   3000.00000000          -6049          -6791         -40965         -44392
   3004.00000000          10098          23662         -24498         -39094
   3008.00000000         -20782           7048          30124          62739
   3012.00000000         -15512         -71515          13371          60903
   3016.00000000         -41172          12146           8079         -61332
   3020.00000000          18768         -12861          49410         -11701
   3024.00000000         -40083         -33850         -12008         -45166
   3028.00000000         -29523         -49196          65801         -36174
   3032.00000000          -1761         -17304          33272         -73010
   3036.00000000         -93367          16141         -16333         -42190
   3040.00000000         -26464         -12178         -54620          14704
   3044.00000000           2117           5244         -59334          88324
   3048.00000000          21288          -1551         -11425         -76372
   3052.00000000           8552          28763          17075          42161
   3056.00000000          84318         -71718            -38           6423
   3060.00000000         -22453         -25530           7292          45058
   3064.00000000         -55176          60701         -52536          58862
   3068.00000000          87208         -49972          75366          -8900
   3072.00000000          13322         -67991          15553          35470
   3076.00000000         -10302           9726         -56335          23328
   3080.00000000         103361          13637          17155         -17873
   3084.00000000         -25802         -38986         -40243          34440
   3088.00000000        -117719           2102         -75971         -73719
   3092.00000000           -700         -50061         -32342         -40600
   3096.00000000          27962         -87539         -20557          60027
   3100.00000000         -43190           6453         -26070         -28816
   3104.00000000         -17764         -18138         -63514          35614
   3108.00000000         -68687          53549         -48289          25753
   3112.00000000          49970          29267          25644         -56086
   3116.00000000          33518          28525          60749          32680
   3120.00000000         -71606          32723         -46533          14418
   3124.00000000          28287          33856          19301          29493
   3128.00000000         -19635         -22803         -12905          81244
   3132.00000000          23892          -9672         106010          55936
   3136.00000000          25961         -74286         -36954          77274
   3140.00000000         -52208           8614          14406          45041
   3144.00000000          47174         -10482          61932          52629
   3148.00000000         -43222          21377           9694         -16575
   3152.00000000         -83061          92655          47281         -74267
   3156.00000000         -18162          26476          93176          67344
   3160.00000000          36135          35184          -6524         -51113
   3164.00000000         -45895         -37807         -49681          -3868
   3168.00000000          17280          -3817           6365         -83422
   3172.00000000         -71054         -30509        -123133          55276
   3176.00000000         -27285         -42552          26485           2333
   3180.00000000         -54423         -38161         -30821          55207
   3184.00000000          69388          27735           6963           8284
   3188.00000000         -59253          -6384          37019          15016
   3192.00000000          16761          52037          52808         -51353
   3196.00000000         -37527         -16289          40135          20471
   3200.00000000          64473         -65633          55936          36203
   3204.00000000          -5545          18735          28597           6334
   3208.00000000          17734          51739          29591          79681
   3212.00000000          31946           6417         -30080         -28061
   3216.00000000          33860         -45470          36607         -17863
   3220.00000000          15674          23525         -10084         -51355
   3224.00000000          36099          13544          20012         -17606
   3228.00000000         -24425         -63430         -27830           2354
   3232.00000000          44340           8967          47947          -6293
   3236.00000000         -65560          -7705          34653         -44562
   3240.00000000          19013          -9340         -23934          16287
   3244.00000000          62096          70322         -19560          -5843
   3248.00000000         -83383           -753          55468         -63936
   3252.00000000          85469          39296         -20482          46166
   3256.00000000          29600         -26362         -20685         -36824
   3260.00000000          41589         -52908          -8328          -6662
   3264.00000000          13910          49795         -63421         -19883
   3268.00000000          30143          27385           9395         -51735
   3272.00000000         -48931          59935          -7788          14484
   3276.00000000          55961          18414           6133         -31017
   3280.00000000         -18322          38161          28823          13555
   3284.00000000         -26134         -36546          -7650            199
   3288.00000000         -18452          35497         -53971          23407
   3292.00000000         -15995         -33324          -7139         -11307
   3296.00000000           7123          17889         -34499         -11034
   3300.00000000          27381         -17260          63026          22427
   3304.00000000          10506           6929         -25384          22034
   3308.00000000         -30493          44909         -24751          -6662
   3312.00000000           6877         -41714          45622          -8687
   3316.00000000          78094          93004          24873         -19584
   3320.00000000         -38216         -20495         -24511           9189
   3324.00000000          28650         -42202         -18123         -24851
   3328.00000000          64647          -1981           8002          66150
   3332.00000000          45482         -23760           8400          -6423
   3336.00000000         -49269          41528          38292          -8856
   3340.00000000          16577          35173          72413          28463
   3344.00000000         -32223          55392          32750          -6411
   3348.00000000         -15166         -21861          36820           2303
   3352.00000000          51104          33637           4514         -31907
   3356.00000000          18733          -8743           3284          20075
   3360.00000000          25372         -39805          52544          93008
   3364.00000000          15294          61197          31398          17108
   3368.00000000          40715          -3201         -16555          31437
   3372.00000000          12356          18737          48545         -14490
   3376.00000000          32883          55085           9389          25674
   3380.00000000          20102         -19745          12518          18830
   3384.00000000          -7939           9407          30524          10646
   3388.00000000         -11830         -26212         -20324         -25264
   3392.00000000          17703           6158          -3618          37359
   3396.00000000          55761          10507          21449         -44038
   3400.00000000         -38087           9271           5337          35553
   3404.00000000          35835           -492           -534           4637
   3408.00000000          42198           5858          34646          -5380
   3412.00000000         -38882         -31237         -21526          -6693
   3416.00000000          31096          -2510          17131         -31006
   3420.00000000          16115          -6614          31887          21867
   3424.00000000          29528          -6576          -1033          -7423
   3428.00000000         -49861         -65136         -21952           7160
   3432.00000000          18787          -6125          17831            638
   3436.00000000          74491           -782           2972          38858
   3440.00000000         -10962         -23461           5132          24674
   3444.00000000         -18202          -6893         -11872         -54114
   3448.00000000           1823         -45752          -1956          33693
   3452.00000000         -47437         -26654          42048          21020
   3456.00000000          17878          -4367          29049          38746
   3460.00000000          40178         -57693          23413          19757
   3464.00000000          13662            480          63265           4850
   3468.00000000         -11236         -79548          43907          34837
   3472.00000000           8224          38373         -16869         -13768
   3476.00000000         -10023          14976         -26155           4860
   3480.00000000          28332          18542         -13719           5169
   3484.00000000           3884           3720           1796          25224
   3488.00000000          60746         -12554           5960          21604
   3492.00000000          24946         -14314         -36800            708
   3496.00000000          41128         -16614          -3494          12623
   3500.00000000           6338          -2408          -8066          25731
   3504.00000000          10008          31748          64909         -19800
   3508.00000000          -9462          -3242         -17739          10764
   3512.00000000         -29581         -12163           2126           2084
   3516.00000000          14867         -15984         -57480         -22779
   3520.00000000          40634          43347          19356          27224
   3524.00000000         -25650          31464         -31182          -9417
   3528.00000000          38155          32383          -2105          12409
   3532.00000000         -15336         -42351         -30510          -9119
   3536.00000000          -9882          40246         -25082         -18618
   3540.00000000         -59386         -19135           1832          34076
   3544.00000000           8829          22620          35320          21087
   3548.00000000          -7817          23761          -1518         -26542
   3552.00000000           2539          34193          24750         -15113
   3556.00000000           6199          38947          61450           5623
   3560.00000000         -25374         -29174          66099          24659
   3564.00000000         -21536          20287          24364          26141
   3568.00000000          -4263          -8881         -50316           5607
   3572.00000000         -35302          13363          17818          10614
   3576.00000000         -17344         -38334         -14507           9899
   3580.00000000           5591         -29588          -1314          59817
   3584.00000000          40931          29643          36155          40717
   3588.00000000          11706          -6885         -36048         -29992
   3592.00000000          33891          10431          11419          10200
   3596.00000000          -4252          23798          37429         -16278
   3600.00000000         -19355          -3453          24964         -47360
   3604.00000000         -31720          -6475         -40237         -36546
   3608.00000000         -24473          23674          16411           6713
   3612.00000000         -31257           2449          -9181          43145
   3616.00000000          -3485           3449           2106          36405
   3620.00000000          -2895          -2413         -20676          12543
   3624.00000000          37996          11458          12660         -26451
   3628.00000000         -10936          21774          -7583           4350
   3632.00000000         -41437         -20134         -11478          16843
   3636.00000000          57199         -17929          37269          -2928
   3640.00000000           6598          23515           8168         -18057
   3644.00000000           3633         -13290           1708          15453
   3648.00000000         -23095          -2719           8455         -32872
   3652.00000000          20928            666         -33826          -4108
   3656.00000000          23023          17126           8656         -21155
   3660.00000000          12194          18832           1936         -14584
   3664.00000000          -1965           4998         -24878          23853
   3668.00000000          14874          -3540          -8808          38945
   3672.00000000         -14641          36616         -21405         -23484
   3676.00000000          15182         -12003          15835          32987
   3680.00000000          -1685           2713           1747          38773
   3684.00000000           3672          19352           4264         -10744
   3688.00000000         -35103          -1811           7424         -33626
   3692.00000000         -18904          -4780         -25522          28222
   3696.00000000          27291         -10082            455          12832
   3700.00000000          -8669          41578          12392          26019
   3704.00000000          14364          27454         -16997         -17666
   3708.00000000          -2482          59371          -2043          24352
   3712.00000000          -7959          15130         -13660          19954
   3716.00000000          16827         -31002          -9388          -8757
   3720.00000000         -21245          23447         -28769          23558
   3724.00000000          14676          -3425         -24173         -47532
   3728.00000000          -3469          12426          28967         -10166
   3732.00000000          33409          -5042          41240         -12344
   3736.00000000         -17979           8516           6343         -28068
   3740.00000000         -30514          24913           3314          24206
   3744.00000000          16763          -4885          -3044         -53269
   3748.00000000          -7195           9774          24784          22989
   3752.00000000           4944           5256           2780           7824
   3756.00000000          35383          25298           7055          14026
   3760.00000000         -27341         -36885         -18736          19127
   3764.00000000          22228           2665            247           -846
   3768.00000000          20898         -34426           1980           1683
   3772.00000000           5262         -21639          21348         -20061
   3776.00000000         -19568         -25884             67             77
   3780.00000000          -2398          -2757           2564          -2214
   3784.00000000          -3049         -13064          -9120          -4161
   3788.00000000         -12028          -8452         -33678         -41590
   3792.00000000          17007          13253          15419          31573
   3796.00000000           9447           -858         -32102          20701
   3800.00000000          -5444          17290          19221           7420
   3804.00000000         -20080          -2654          -7145          21323
   3808.00000000           5406          15215          12272         -12444
   3812.00000000          23363          -7773           8177          18691
   3816.00000000          18581          16345          -3193         -18803
   3820.00000000          -4988           1875           1717         -10086
   3824.00000000          14463          10253         -20146          -1468
   3828.00000000          14921          12017          41294          -6061
   3832.00000000         -17821          22451         -18233           -925
   3836.00000000          15908          18212          19556         -11705
   3840.00000000         -30974           3347         -19735           6781
   3844.00000000          20873           7036          30673          -4191
   3848.00000000         -21864          15995           6036         -17614
   3852.00000000          13783          -7077          13333          12723
   3856.00000000          17760          29387          20894         -12606
   3860.00000000         -27702           8186         -24553          -2536
   3864.00000000          -6434          -3651          -4134          -4167
   3868.00000000          16915         -29125           -895          -5779
   3872.00000000            364          -8568          19076           5741
   3876.00000000          -9606          17641          23653          -8298
   3880.00000000          -3316           6678          -3258          29138
   3884.00000000           1508          -3239           1343           4690
   3888.00000000          -1345          19581         -33041         -15433
   3892.00000000         -19176          17697         -14441         -19757
   3896.00000000           6538          -4616          -6547          -8343
   3900.00000000          19446          -7318         -29143           8653
   3904.00000000          14036            577           6695          -9345
   3908.00000000          20446           -619          -7772         -46588
   3912.00000000           -306         -18324           2006          14876
   3916.00000000          34275          -5116          17893          -4603
   3920.00000000             45          12511           2520         -16649
   3924.00000000         -19588         -24768         -29934           7459
   3928.00000000           7857           -945           -953          33848
   3932.00000000          -4450           4673          -7753          -6448
   3936.00000000         -13396           1607          29368         -17907
   3940.00000000           8189          24917          14774         -11079
   3944.00000000          -8173         -16580          27268          10901
   3948.00000000          -6894         -14942          14523         -17814
   3952.00000000          12492           7790          29896         -16218
   3956.00000000          -2666         -29303           3549          -8651
   3960.00000000          -8258          20531          -9011          19965
   3964.00000000          11207         -15635         -11584         -21999
   3968.00000000          -5414          21564          28686          15977
   3972.00000000          21581          -3418         -30942         -15131
   3976.00000000         -12832         -10726          -1669           1115
   3980.00000000          -7131           7218          -9269          11783
   3984.00000000           3697          10574         -10209          -2743
   3988.00000000           2001           3917           -462          22786
   3992.00000000          20178          16887         -16665          -1938
   3996.00000000          -1380           5475         -23794          -3326
   4000.00000000          -7806          -4798         -16857          -3599
   4004.00000000          12675          14051         -39194         -22962
   4008.00000000          -1831          -4736           4840          -5382
   4012.00000000          -6063         -23325           8441          -3911
   4016.00000000         -19221          17226         -16274           4617
   4020.00000000          -9981          15129         -10390          15026
   4024.00000000           2592          25411          -8681          21937
   4028.00000000           4184           7832           7857           4844
   4032.00000000         -14832          17655         -32951         -11048
   4036.00000000           1530           8900           8333          -1622
   4040.00000000           2190         -19797         -15042          -2780
   4044.00000000           4024         -21744           -218           9873
   4048.00000000           1349           2932         -20552          -7625
   4052.00000000          16731          10313         -14507           5459
   4056.00000000         -29540         -18511          11916          -9199
   4060.00000000          -2268           1904          -5332           4124
   4064.00000000         -18390         -29594          -4663          -1576
   4068.00000000          -7256           2891          21316         -15022
   4072.00000000          -9250          19859          -6097          24059
   4076.00000000           -988          17190          -4395           -726
   4080.00000000           4680           -948           8993          11455
   4084.00000000           -896         -22896          21271          19614
   4088.00000000           -729          -7056          -7861          -4548
   4092.00000000           6291           8517          11835            525
   4096.00000000         -14278          17182           1062          -7121
   4100.00000000           2394         -14225          -5529          18070
   4104.00000000           2514          11676           2788          -7923
   4108.00000000          -9913          -1460         -13372         -12971
   4112.00000000          -4264           -598         -17542         -23821
   4116.00000000         -12760           1155           5986          10282
   4120.00000000          -2257           8023            269           7805
   4124.00000000          19308          16533           5217          -1409
   4128.00000000         -18857           4191          16919          17136
   4132.00000000          15881          -3546           7438           1423
   4136.00000000            213           3413         -22347         -21686
   4140.00000000         -12888         -15442          -2095           8801
   4144.00000000          -5964         -10136          16695           5105
   4148.00000000          16821           6855          -2822           1995
   4152.00000000           7630         -15897          10840          -6145
   4156.00000000           9156         -13914          15518          10368
   4160.00000000          -7193          -4839           8949           3345
   4164.00000000          -4017           7797           4036         -26062
   4168.00000000         -15695            530          11425         -17202
   4172.00000000         -12441            716          -9649         -15579
   4176.00000000         -15958           3409           5683          -4330
   4180.00000000           7124          11952         -14674          -2473
   4184.00000000         -15343           1159         -14204          15510
   4188.00000000           6620           3278          -2345          23592
   4192.00000000          -4941          -4164           4985         -12591
   4196.00000000          10676           8224           -449          -7636
   4200.00000000          -1406          -4488           1341          -2557
   4204.00000000          -4960         -10632          10229          12181
   4208.00000000           5067           4846         -18669          -2920
   4212.00000000            705           8122         -17151         -13666
   4216.00000000          -3182           3478         -11735           5506
   4220.00000000            759           6890          -9055          -1442
   4224.00000000          -4813          -1390           -519         -11138
   4228.00000000           1547          -7572          -4497          -6087
   4232.00000000           1273           7360          -6843           -821
   4236.00000000         -15645           5378           7725          10905
   4240.00000000          17090           3110          -5985          -3949
   4244.00000000         -12496           1066           5105          -7007
   4248.00000000          -8196          -5065          14141         -11473
   4252.00000000           3296          10451          -9078         -14370
   4256.00000000         -17853          23981          -8796          -5675
   4260.00000000          -7250         -17337           1304          -2242
   4264.00000000         -12275         -10637          11153         -11996
   4268.00000000          -7779            875          -3161           4137
   4272.00000000           6415          -3627         -11520          11420
   4276.00000000          -5458           2570          15692          13428
   4280.00000000          -6311           2782           7974          -2216
   4284.00000000          -7223          14144          -8489          -6994
   4288.00000000          -1245          -4896            590          14845
   4292.00000000          -1101          19198           7112          10821
   4296.00000000           6241          -8592         -30846          -1675
   4300.00000000           2184          -1227          -5340         -11177
   4304.00000000           1980          10753           2513          -8154
   4308.00000000          10062           4711           4717          13980
   4312.00000000           6194          11368           4665          -1223
   4316.00000000          23157           6594            861           7804
   4320.00000000           4460           9547           1339           7405
   4324.00000000           7835         -11072           4816           2341
   4328.00000000          -3596          -6746          -1020           4597
   4332.00000000           4321          -7189           6282           7520
   4336.00000000          -4714          -6621           2498          -9838
   4340.00000000           5443         -10531          -9568          10637
   4344.00000000         -13461          -4662           5611          -5410
   4348.00000000          23457         -10669          10303           8453
   4352.00000000            934          15593            635          -5253
   4356.00000000           8745           8040          13803           7232
   4360.00000000         -14219           2816           1492           3766
   4364.00000000          -2810          -8793          10037          -3353
   4368.00000000         -15064           1299         -10101          14441
   4372.00000000            923          -9705          -8613         -18659
   4376.00000000           9644         -18177          11220           7759
   4380.00000000         -13006          -8352          12308          -4853
   4384.00000000          -6528          10121         -11507           2870
   4388.00000000           -878          17516          -1684          16642
   4392.00000000           -315           2145           -290          12988
   4396.00000000          -6352          18674          13102           2529
   4400.00000000           7719           2409          -9578         -13247
   4404.00000000           1267           9870           8326          10194
   4408.00000000          -2851         -17285          -7742         -23275
   4412.00000000           5136          -1231          -3881           7557
   4416.00000000           2222          12254           4173          15026
   4420.00000000         -16062         -10433          -5527          -8085
   4424.00000000          -3681           4162           8310          -8033
   4428.00000000          11550          -6420          17018           1990
   4432.00000000         -14595         -10873            704         -10123
   4436.00000000          13007          -2277          -1333          -3042
   4440.00000000          -3082           6443          -1854          -6764
   4444.00000000           6628           -884          -6982          11937
   4448.00000000           3328           5560          -4117          -2194
   4452.00000000          -2716          -1703           -112           1969
   4456.00000000           4559          -2431          -4625            871
   4460.00000000          12291           1937          13891          -7004
   4464.00000000           2448           4220           2931           6266
   4468.00000000         -15681          -9877           9112           4179
   4472.00000000          -7796           -687           1503          16597
   4476.00000000           5364           7289           1105           3196
   4480.00000000           1995          -7320           3541           -511
   4484.00000000          -5693           3149          16015           3934
   4488.00000000           7120           2179          -2958          12432
   4492.00000000           -582            605          -1269           2010
   4496.00000000           8981          -2601           2340          -4453
   4500.00000000           7452          -4843          -5863           -439
   4504.00000000           1890           6247          10252           3142
   4508.00000000         -12341           4766           8698          -2928
   4512.00000000          -7314          -2927           1350         -10938
   4516.00000000         -12497           -670          -5127          -2863
   4520.00000000          -2044          -8177           4703         -10324
   4524.00000000          -2039           1261           6443          -1175
   4528.00000000          -6561          -8477          -7779           5759
   4532.00000000          -5637          -7515          -2905           3913
   4536.00000000          -4409           1719          -6426          -6193
   4540.00000000          -2606          -9665           1018          -9337
   4544.00000000          -7883           2020            619           3217
   4548.00000000          -2264           1510           6468          -7052
   4552.00000000           2250          -7570           4105          -7327
   4556.00000000          -2951           4498           2491          -5502
   4560.00000000           3176          -2245         -13446          -8650
   4564.00000000           6135          -3296          -8373           2566
   4568.00000000          -6546           6026          -6028            302
   4572.00000000           6121           9779          -5131           8669
   4576.00000000          -3148          -2858           1999           4812
   4580.00000000           9468          11566           9794          -1344
   4584.00000000           2490           1515          15781          -4440
   4588.00000000           9607          13736           2007          -3892
   4592.00000000          -1774           2297          -8251           2255
   4596.00000000           1583           7983           2901            -91
   4600.00000000            805           -325           2399           5483
   4604.00000000           7681           1415           -384          -9569
   4608.00000000          -6382           1217          -1816         -10285
   4612.00000000          10525            906          -5202            247
   4616.00000000          -7090           2677           8175            519
   4620.00000000          -5367          -4715           8619          -5096
   4624.00000000          -3029           4460          -4524          -4421
   4628.00000000           -378           3171            855           7396
   4632.00000000           3241          -2121            -98          -6144
   4636.00000000          -1864           4821           5331           1818
   4640.00000000          14583           6540          -2335           8036
   4644.00000000           4939           1491           4020           7006
   4648.00000000          11242           2735         -11288           1689
   4652.00000000          -2002          -2013           9687          -2733
   4656.00000000           1754          -1672          -9928          -2294
   4660.00000000           2796           2849          -8111          -9675
   4664.00000000            283            507           -253          -7963
   4668.00000000          -5063           2522            -32           -130
   4672.00000000           6403           5840          -9605           5078
   4676.00000000          -6721          -4910           5210          -4653
   4680.00000000          -5267           3199          16174          -6203
   4684.00000000           1337           -446           -546           5100
   4688.00000000          -1112           -582          -8846          -1827
   4692.00000000         -14539           3321           9150           8159
   4696.00000000           3235           2144           1143          -5840
   4700.00000000           5256         -11854           8899            780
   4704.00000000           6467          -2344          -4089           8405
   4708.00000000           -987          -5886           3962          -4440
   4712.00000000          -4744           2289          -5019           1563
   4716.00000000           9795           -836           -699           3796
   4720.00000000          -5158           3044           2666           2561
   4724.00000000            -82           4111           3839           2869
   4728.00000000           5343            756           6814          -1381
   4732.00000000          -6549          -1712           2937          -1792
   4736.00000000         -10022           3236          -1919            520
   4740.00000000          -9314            552           1396           1399
   4744.00000000           6181           6230           2511          -1219
   4748.00000000           3886          -1572          -7332           3554
   4752.00000000           3768          -1396           1752           5673
   4756.00000000          -3994           7903          -6978          -1820
   4760.00000000           -725          -1926           1099           4994
   4764.00000000           5834            179          -3862          -6104
   4768.00000000          -4275           1215          -7139           -921
   4772.00000000          -4752           4729            343           7575
   4776.00000000           -581           3501           1413           4106
   4780.00000000           4798           -820           4422           6304
   4784.00000000           1588          -9181          -3421          -3577
   4788.00000000           -441          -4407          -7855          -1847
   4792.00000000           8832           1204           4365           2933
   4796.00000000          -6668          -7325           1798          -2634
   4800.00000000           1554            681          -4355          -3563
   4804.00000000          -2844          -1153           5502         -11966
   4808.00000000          -9384            722          -7839          -5402
   4812.00000000           4813           -403          -4275           5401
   4816.00000000           1698           1124           5982          -1297
   4820.00000000           -232          -3057           7017          10955
   4824.00000000          -8869           1616           2667           3016
   4828.00000000           1393          -3924           3337           -708
   4832.00000000          -2324           4258           6221          -9234
   4836.00000000          -7080          -6672            642           -364
   4840.00000000           8206          -5905          -7670           1189
   4844.00000000           -592            912           2712           -540
   4848.00000000          -1369           1432           6451          -2494
   4852.00000000          -1801          -7128           5091           4884
   4856.00000000          -9535           3989           3027          -8657
   4860.00000000           2622          -1057           4589          -1996
   4864.00000000          -3650           6604           5196          -6652
   4868.00000000          -1638          -1369          -3086            629
   4872.00000000           4020          -2697          -2023           3216
   4876.00000000           2071           1454          -4828          -2216
   4880.00000000           4493           4635           7308          -1782
   4884.00000000          -1080          -3597          -1141           1594
   4888.00000000            427          -4730           1085           5939
   4892.00000000           -476          -3203          -5421         -10249
   4896.00000000          -2187           3828          -1482          -3339
   4900.00000000          -2549          -3846          -1166           1782
   4904.00000000           -254          -3566           3099           2326
   4908.00000000          -4510          -1077          -2106           -908
   4912.00000000           3561          -3651          -7897          -1304
   4916.00000000          -4500          -2573           -599              3
   4920.00000000           5764           3226          -2196           3876
   4924.00000000          -1228          -1517          -2787          -2294
   4928.00000000           8531           5812           2871          -1506
   4932.00000000           3728          -5193          -3072            125
   4936.00000000          -1516          -2234          -4007          -2011
   4940.00000000            628           3186          -3625           3245
   4944.00000000            694          -1174           1172          -5804
   4948.00000000            854           1386           1691           5363
   4952.00000000          -9488          -3129          -7107           1518
   4956.00000000           2202          -2850           3594          -1018
   4960.00000000         -11296           1751          -2869           1248
   4964.00000000          -2196           2093           1700          -5075
   4968.00000000           -982          -1791          -2064           4137
   4972.00000000          -1648           3378          -3568          -4384
   4976.00000000            969          -1278            157           3539
   4980.00000000           9027            973           -971          -2952
   4984.00000000          -1372           4135           2698          -4973
   4988.00000000          -4060          -2258           -719            174
   4992.00000000            285            724           -494          -2980
   4996.00000000            471           3306           -658           3445
   5000.00000000          -3195           1301           2150           1659
   5004.00000000            383          -6375          -2510            290
   5008.00000000           7735           -719          -1784            292
   5012.00000000          -3330          -4112           -395          -2492
   5016.00000000           -620           2688           4930          -1729
   5020.00000000          -8955           2523           4330          -1424
   5024.00000000          -6215           -490           -900            199
   5028.00000000           3719           -764           1791           5093
   5032.00000000          -4203            628           2765          -2900
   5036.00000000           4299           5547            509          -2467
   5040.00000000            884          -4780           -299          -3714
   5044.00000000           1765          -1398           -242           -992
   5048.00000000          -4774          10943           2808          -8358
   5052.00000000           1466          -2492           2768          -7250
   5056.00000000           6603           3626          -2422          -5295
   5060.00000000            822           -856           2192           6158
   5064.00000000           1161            -24          -1356          -3695
   5068.00000000           1846          -3474          -1627          -3083
   5072.00000000          -2475          -1320          -1343           2643
   5076.00000000          -1657           2187           1835          -3061
   5080.00000000          -5238          -5149            305           1854
   5084.00000000           3916           -555          -5755          -3003
   5088.00000000            886           -617          -1347            255
   5092.00000000            640           -359           2906           -552
   5096.00000000          -2771          -4540          -1686           2476
   5100.00000000            603          -4529          -1894          -8367
   5104.00000000          -4062           1226           5652          -3235
   5108.00000000          -5777           1736           -628          -3263
   5112.00000000          -6077            254          -4052           -666
   5116.00000000           1143          -2075            289          -1858
   5120.00000000            827          -1746           1042          -1782
   5124.00000000           2005           2623            -70           3980
   5128.00000000           4829          -2129           1490           -534
   5132.00000000           4674            196            542           2353
   5136.00000000           2539          -3966           4739          -2786
   5140.00000000          -3574          -1743           -521             94
   5144.00000000           4157          -3612           1453            799
   5148.00000000          -7775          -1195            -12           -372
   5152.00000000           1441          -7538          -3426           7719
   5156.00000000           -758           4456          -3678          -1045
   5160.00000000           4695           2240             -9            304
   5164.00000000            988           -270            868          -7194
   5168.00000000            868           7374           3411           -837
   5172.00000000           -486           -166           6641            -99
   5176.00000000           2596           4486            670          -2755
   5180.00000000          -3649           3743          -1869           5182
   5184.00000000          -1521           -667            800           3620
   5188.00000000           1385          -1704            574           -928
   5192.00000000           1735           2046          -2165           -210
   5196.00000000          -1393           -704           4619          -1467
   5200.00000000           1798          -2439           3971          -2236
   5204.00000000          -1707          -1369           -770           1343
   5208.00000000             40          -2560          -3385            640
   5212.00000000           -622           -717            885           3318
   5216.00000000           3414            -11          -5551           2131
   5220.00000000          -1562          -1116           3149           -583
   5224.00000000          -3183          -2256           2391             84
   5228.00000000           -126           4218          -1727          -1422
   5232.00000000           1180          -3079          -1213           3286
   5236.00000000           4035          -1411          -4211          -4433
   5240.00000000           2923           2025          -5040          -2152
   5244.00000000          -1127          -2117          -4352            162
   5248.00000000          -1445          -1669          -2849           3393
   5252.00000000            625          -1444           3616          -4745
   5256.00000000           3898            874          -3611          -2076
   5260.00000000           3547           2707           1718           1876
   5264.00000000            717           2926           3535           1379
   5268.00000000            266           1376           -255          -3893
   5272.00000000          -2018            718           5864           -819
   5276.00000000           1568          -2195          -4720          -5709
   5280.00000000            843            268           2493            501
   5284.00000000            953           4491             30           3577
   5288.00000000           -708           3938           2437           2295
   5292.00000000             87           2408            374          -1113
   5296.00000000           1390           1841            675           1271
   5300.00000000          -3260           -536           1399           3526
   5304.00000000            284          -1396            110           -661
   5308.00000000           4510           2927          -2359           -765
   5312.00000000           3603           -158           4162            241
   5316.00000000          -1896           1228           1305           2909
   5320.00000000           1736            139           1337           3220
   5324.00000000           3134          -1259           -685           2095
   5328.00000000          -3476            758           -331           -185
   5332.00000000           1394            -92           -490           1298
   5336.00000000            372            955           3919           -337
   5340.00000000           -808          -1782          -1809           -447
   5344.00000000          -2015           -522          -1767            275
   5348.00000000          -3516           -858          -2858           -604
   5352.00000000           2112           2896            206           -721
   5356.00000000           -134          -1846          -1846          -3342
   5360.00000000           -380           4977            673           1723
   5364.00000000              5          -1948           2413           -557
   5368.00000000           2001            152           1308          -2832
   5372.00000000          -2014           1898          -3593            164
   5376.00000000           2653            790          -4415          -4649
   5380.00000000           -467          -2707           1367            721
   5384.00000000           1729           1993            978           -102
   5388.00000000           1853            683          -1768             -2
   5392.00000000           1172           1500           1869            434
   5396.00000000            232           -409            223           -259
   5400.00000000           -414           -871          -2326           1091
   5404.00000000           -869           1875          -1497           -711
   5408.00000000          -3290           8112          -1488          -1154
   5412.00000000           3077           -831           3332           -567
   5416.00000000          -2080           -513           -389           -126
   5420.00000000            905            324           -162          -1330
   5424.00000000           -581           1887           1313           3943
   5428.00000000           2606          -3366           3453           1199
   5432.00000000           1243           -328           1331           2138
   5436.00000000          -1992           3868           2690           2002
   5440.00000000          -1588          -1359           -574           1334
   5444.00000000            142           3298           1449           2588
   5448.00000000           1006          -1559          -2398           -754
   5452.00000000           1460           -331           1373           5007
   5456.00000000          -2750             63           2097          -1092
   5460.00000000           -380          -1600           1662           -939
   5464.00000000            706           1327           -218            922
   5468.00000000            733          -1547           -467            754
   5472.00000000           -837          -1822           2140          -1217
   5476.00000000           -220           -706           -792           2028
   5480.00000000           1271            861           1123           -343
   5484.00000000           1225            235           -875          -1515
   5488.00000000            814           1878           1682          -1477
   5492.00000000            474           -101            406            685
   5496.00000000           1782           3082          -1679          -1756
   5500.00000000            371           -436          -4588           1036
   5504.00000000            388           1489           -740            344
   5508.00000000          -3436            560          -2924            848
   5512.00000000          -3946           1669           -971          -1039
   5516.00000000           -259           2109           1336           -866
   5520.00000000           2011          -2598           -585          -2186
   5524.00000000          -3422          -3655            770          -3084
   5528.00000000          -2506            790           2527           -202
   5532.00000000          -2232           1362          -3448           -993
   5536.00000000           1359           4604           2760           1648
   5540.00000000          -1053           -923           -247            291
   5544.00000000           -721           2959           1352           1163
   5548.00000000           -695          -2423           -992           -967
   5552.00000000           1668           2372           2199           1954
   5556.00000000            -69           1394           1868          -1121
   5560.00000000            923           1554            262           1682
   5564.00000000           1629           -975           -165           1905
   5568.00000000           3666            -95           1319           2585
   5572.00000000           2172           -694           3266           1809
   5576.00000000           1270          -1416          -1082          -2305
   5580.00000000          -1215           -261            234          -1099
   5584.00000000          -2602             26           -568            561
   5588.00000000          -1481           -955            711            462
   5592.00000000           -998             33            309            903
   5596.00000000           -676           2462             15            548
   5600.00000000           1025            181          -1916          -1666
   5604.00000000             87            359          -1725           -166
   5608.00000000           -525           -298          -1960          -1211
   5612.00000000           -695          -2955           -520            347
   5616.00000000           2051           1161            -11           2090
   5620.00000000            878           -938           1785           1321
   5624.00000000           3055           -809           2629           1714
   5628.00000000           2599          -1135          -2979           1451
   5632.00000000           1573           1303          -1800           -690
   5636.00000000            -81           1167           -150              2
   5640.00000000           -676          -4282            329           1398
   5644.00000000           -454          -1587            308            781
   5648.00000000          -1742           1832            177           2375
   5652.00000000           1705            935           -679           -670
   5656.00000000          -3544          -1060           2681           -279
   5660.00000000           2943           -242           -698            712
   5664.00000000           1152           2762           1885            487
   5668.00000000           -201           1160           2445            448
   5672.00000000            436            262            488            -76
   5676.00000000           -532           -150           2103           1522
   5680.00000000           -459           -400          -1213          -1687
   5684.00000000          -1912           3583           -378           2712
   5688.00000000           2083          -1086           -515           2081
   5692.00000000            602            695           1175           1386
   5696.00000000           3217            -16           -584            815
   5700.00000000           1779           -650            627           -161
   5704.00000000           1072          -1204           -251           -237
   5708.00000000          -1360           -733          -3515           2536
   5712.00000000           -767          -2005          -3528          -1667
   5716.00000000          -1177            876           1205           2780
   5720.00000000           -964           -411           3647           2365
   5724.00000000           1738           1324           -406            -17
   5728.00000000           2969           2127            312            285
   5732.00000000           -101            831           -509           -229
   5736.00000000           -238          -1142          -1635             99
   5740.00000000            829           1298           -502           2776
   5744.00000000            559           -928           1781            937
   5748.00000000          -1573           2113           -649           1274
   5752.00000000            281          -1540            195           -857
   5756.00000000           -427            769           1185           -228
   5760.00000000           -280          -2463          -1050            710
   5764.00000000          -1311           -663           2106            577
   5768.00000000           1177           -133            581           1599
   5772.00000000            422           2504           1030            559
   5776.00000000          -2345            188            983           -414
   5780.00000000           2034            521           -306           1034
   5784.00000000           1127           1754            629            913
   5788.00000000           -815          -1533           4283            146
   5792.00000000          -1299           1391            680          -1267
   5796.00000000          -1707          -2165          -1156            182
   5800.00000000           1736           -373            657          -2757
   5804.00000000          -1428            878           -389           1678
   5808.00000000            534          -1447           1374            237
   5812.00000000            226          -2114            671          -1669
   5816.00000000            311           -441           1034           -244
   5820.00000000          -1522           -328          -1691            172
   5824.00000000           -238           -179           -910             41
   5828.00000000            863           1065           -113          -1081
   5832.00000000          -1489          -1798          -2003           -324
   5836.00000000          -1505           2569           -138           -390
   5840.00000000          -2019           2102            344            631
   5844.00000000           1929            588          -3695             83
   5848.00000000          -2369            839            509           -792
   5852.00000000           2406           1227          -1661           -684
   5856.00000000           1882            551           -460            -84
   5860.00000000            601          -1867            834            -92
   5864.00000000           2598           -370            157          -1483
   5868.00000000             45           -181           -187           2852
   5872.00000000           -958          -1107           1815             18
   5876.00000000           1136           2192           1643            230
   5880.00000000           2036          -2038            528            536
   5884.00000000            221           2108           -494            927
   5888.00000000            457            503           -199            695
   5892.00000000           -922           -488           -559            815
   5896.00000000             13          -1598           1401          -1183
   5900.00000000           1075          -1251           -366           -610
   5904.00000000            -44          -2035           3191            447
   5908.00000000          -1400          -1058            -94            400
   5912.00000000          -1301           -164             37           1393
   5916.00000000          -1235          -1381           1804           1083
   5920.00000000            187            865           -483           -116
   5924.00000000           1661           -162           -330          -1100
   5928.00000000           -819           -275           -816           1612
   5932.00000000            175           1079            733           -132
   5936.00000000            568           2036            865          -1330
   5940.00000000           2606           -720           -914            361
   5944.00000000            476           -438           1196            -98
   5948.00000000              6           -174          -1395           1104
   5952.00000000            439            513           1556           1204
   5956.00000000            129           -416            -10           1175
   5960.00000000           1391           -698           -992            205
   5964.00000000            400           1177           1529            262
   5968.00000000           1283           1466             69            803
   5972.00000000          -1049           -548            789           1324
   5976.00000000           -476           -387           -449            720
   5980.00000000           1206           -373            521          -1415
   5984.00000000          -1263           -583           -850          -1034
   5988.00000000           -666           1709           -264            878
   5992.00000000           -496            -67           1731            646
   5996.00000000            441            597          -2915           -276
   6000.00000000           1557            536            710            -61
   6004.00000000            607           1552           -331            459
   6008.00000000           -670           -110           -197            611
   6012.00000000          -1401            459             85            167
   6016.00000000           -121            657            533            757
   6020.00000000           1216            886            655             14
   6024.00000000            -49           1132           -129            216
   6028.00000000           1216            808           -726          -1642
   6032.00000000            150            -10            912            946
   6036.00000000            995            410             23            100
   6040.00000000           -229          -1994            748            891
   6044.00000000            727            909           1092           1032
   6048.00000000             15            124            430            -25
   6052.00000000           -330            321           -311           -817
   6056.00000000            812          -2067            974           -605
   6060.00000000          -1403           -471          -1039           -342
   6064.00000000            705           -353           1330          -1141
   6068.00000000            936           -119            428           -336
   6072.00000000            -98           -161            250          -2211
   6076.00000000           -281          -1030            494            182
   6080.00000000            842           1369          -2089            286
   6084.00000000            135           1759            456           -764
   6088.00000000           -510            650            282            624
   6092.00000000           -288             38           1651           -242
   6096.00000000            -66           -211           1124           -959
   6100.00000000           -644            114            969           -334
   6104.00000000             39            158          -1005             30
   6108.00000000          -1270            -80           -645           -162
   6112.00000000           1380            727            255           -440
   6116.00000000            818           -662           1126           1217
   6120.00000000           -464           2769           1363            413
   6124.00000000            132          -1016            653           -954
   6128.00000000           1546           -710           1435            400
   6132.00000000           1973             23           -758          -1558
   6136.00000000           -661            151            -37            356
   6140.00000000           1037            -17              2           1527
   6144.00000000            142           -181            164           -767
   6148.00000000           -357            271           -230           -138
   6152.00000000            659           1277             11            229
   6156.00000000            195           -268             36           1086
   6160.00000000           -389            233            455            597
   6164.00000000            539           -320            837            -51
   6168.00000000           1347           1176            842             74
   6172.00000000           -925           -450            128           -721
   6176.00000000           1981            929            762           1150
   6180.00000000            702           1007            984           -362
   6184.00000000            470            943          -1335            895
   6188.00000000            885           -667             94            134
   6192.00000000           -360           -958           -833           1224
   6196.00000000           1305            902           -421          -1350
   6200.00000000             35           -219            205           -119
   6204.00000000            -42            -49           -904            736
   6208.00000000           -321            137           -173            533
   6212.00000000            682            190           -710           -584
   6216.00000000             38           -290            337           -305
   6220.00000000           1027            477            517          -1003
   6224.00000000            853            124           -146            983
   6228.00000000           -456           1484            228           -320
   6232.00000000           -131           1272           1125            820
   6236.00000000           -207           -723            538             17
   6240.00000000            -27            635           -870           -373
   6244.00000000           1174            -56             92          -1111
   6248.00000000            333            820            596           1016
   6252.00000000           1204            -19           1008           1490
   6256.00000000            440            848             34           -687
   6260.00000000            189           -259            862           1295
   6264.00000000           -307            467            319            860
   6268.00000000           -133           -550            128           -105
   6272.00000000            572           -974           -540           -180
   6276.00000000            267           -676            120           -758
   6280.00000000           -149           1098           -464            424
   6284.00000000           -978            246            286            462
   6288.00000000           -112          -1086           -177            922
   6292.00000000           -116          -1003            170            549
   6296.00000000           1099            376           -297            202
   6300.00000000           1780            543            768            585
   6304.00000000           -129           -611           -108            719
   6308.00000000            510           -536           -866           -274
   6312.00000000            837            102            547            167
   6316.00000000             82             -2           -152           -124
   6320.00000000           -474           -279           1131            680
   6324.00000000            -47            294            343           1460
   6328.00000000          -1159           -683            125             16
   6332.00000000            519            361            566            879
   6336.00000000           -169           1310            -54            805
   6340.00000000            125           -819            -15           -155
   6344.00000000           -370            508            -32            762
   6348.00000000            626            918            636            466
   6352.00000000            372           -987           -339           -349
   6356.00000000            312           -713           -229            158
   6360.00000000            589            588           -500            908
   6364.00000000           -722           -312           -564           -366
   6368.00000000            765            228           -800           -139
   6372.00000000            436            990           -316           -241
   6376.00000000            324            435             46           -418
   6380.00000000            490           -591            -30           -732
   6384.00000000           -400            386            692            191
   6388.00000000            520           -874            956            595
   6392.00000000           1051            -19           -112           -126
   6396.00000000            693            209            778             66
   6400.00000000           -191            246           -481           -745
   6404.00000000           -424            339           -203            323
   6408.00000000           1111           -707           -600           -111
   6412.00000000            606           -404          -1444            593
   6416.00000000            308            -70            526            371
   6420.00000000            977            422           -244           -131
   6424.00000000           -341           -301           -315           -365
   6428.00000000           -610            259           -451            -96
   6432.00000000            340           -708            475           -235
   6436.00000000           -955            -42           -396           1144
   6440.00000000           -211            576           -135           -134
   6444.00000000            469            505             42           -350
   6448.00000000           -428           1202            911            -81
   6452.00000000             31            650           1110           -156
   6456.00000000           -649           -647            166            209
   6460.00000000            255            230            -94           1104
   6464.00000000           -129           -365           -828           -551
   6468.00000000           -588             70            557             86
   6472.00000000            -52            490            295            377
   6476.00000000            550           -704           -332            -77
   6480.00000000           -431            163            354           -117
   6484.00000000            526           1107           -215            595
   6488.00000000            339            351            572           -227
   6492.00000000            200           1476            497            680
   6496.00000000            177              4            -15           -248
   6500.00000000            400           -164             79           -590
   6504.00000000            -88            506            434           -178
   6508.00000000           -207            359            233           1175
   6512.00000000           -314            -19            216           -229
   6516.00000000           -563            315           -291           -242
   6520.00000000           -549           -193            102            780
   6524.00000000            292            376           -803            836
   6528.00000000            288            387           -189            533
   6532.00000000            100            804            312            167
   6536.00000000           -293           -570            435           -212
   6540.00000000            111           -376             -2            -27
   6544.00000000             45           -536            526           -335
   6548.00000000            609           1101            930            182
   6552.00000000              2           -403             99           -120
   6556.00000000            178           -285            842            389
   6560.00000000            -67           1388            166             23
   6564.00000000            107            200            202            544
   6568.00000000           -290           -526            696             59
   6572.00000000           -400            134            307            480
   6576.00000000            778           1006            302           -203
   6580.00000000           -143             99            438             -0
   6584.00000000           -119           -396            209            320
   6588.00000000            -56             -6            162            116
   6592.00000000            203           -302            -10            608
   6596.00000000           -203             -5          -1063           -179
   6600.00000000             24            -94            376            -54
   6604.00000000           1126            376            522            731
   6608.00000000            511           -150            495            178
   6612.00000000           -522            -76            233           -201
   6616.00000000            500              2            -87           -174
   6620.00000000           -262           -407           -663            -28
   6624.00000000            189           -202            191           -250
   6628.00000000           -379            103            320             27
   6632.00000000            -58           -715             55            281
   6636.00000000            523           -447            -38            470
   6640.00000000             -5            690            485            -48
   6644.00000000              3           -412            -49            171
   6648.00000000             99           -273            358            -68
   6652.00000000           -608            504            183           -140
   6656.00000000             58            191            586           -443
   6660.00000000            -29             14           -325            -33
   6664.00000000            -10             14            394             38
   6668.00000000           -364            -79            346            180
   6672.00000000           -295            402           -414            224
   6676.00000000           -222             11            297           -530
   6680.00000000             15            174             -6            500
   6684.00000000           -209           -265            202           -626
   6688.00000000           -483            145            108            170
   6692.00000000            306           -107             -7            482
   6696.00000000            671           -235            -12            440
   6700.00000000            -35           -209            -12            431
   6704.00000000            455           -193            359           -407
   6708.00000000            101            492            156            355
   6712.00000000            -76           1096            619            -79
   6716.00000000            686            121            288            961
   6720.00000000            378            -96            718            268
   6724.00000000            -73            207           -228            722
   6728.00000000           -663             29           -317            472
   6732.00000000           -768            293            424           -485
   6736.00000000             32            141           -262           -496
   6740.00000000            -76           -397            533            435
   6744.00000000            320            456            215              7
   6748.00000000            409            138             72           -631
   6752.00000000           -311           -143           -113           -175
   6756.00000000            133            -32            -79            353
   6760.00000000           -108           -267           -158           -305
   6764.00000000           -341           -860           -167           -339
   6768.00000000           -138            164            266            377
   6772.00000000             29           -573            290            -43
   6776.00000000            -65           -450           -186             31
   6780.00000000           -415           -182             84            286
   6784.00000000            -68              1           -256            464
   6788.00000000            232             66           -344             98
   6792.00000000            571            268             31           -124
   6796.00000000            280            616            541           -339
   6800.00000000            380            -70            371            478
   6804.00000000            965           -357              4            114
   6808.00000000             30            424            353              5
   6812.00000000           -261           -148            105            662
   6816.00000000            -21            387           -244            270
   6820.00000000           -170           -205           -135           -325
   6824.00000000           -215           -182             21             47
   6828.00000000            143           -137           -143           -362
   6832.00000000           -185           -210             41            411
   6836.00000000            -98            166             65            268
   6840.00000000            -81            378            808            184
   6844.00000000             34            204              1            122
   6848.00000000             66           -313            786            317
   6852.00000000            359           -500            218           -253
   6856.00000000           -193            -99            385            269
   6860.00000000            108            187             96            299
   6864.00000000              1            242            471           -177
   6868.00000000             50           -219           -276             59
   6872.00000000            180            357             88           -210
   6876.00000000             21           -374           -146            303
   6880.00000000           -359            -66            170             93
   6884.00000000            157           -408            381             44
   6888.00000000           -340           -319           -332            292
   6892.00000000           -203           -113            -24           -175
   6896.00000000            311            178           -125            253
   6900.00000000            393             57             20           -176
   6904.00000000            130           -296            431           -114
   6908.00000000            513            110            -43           -207
   6912.00000000            155            -72           -361            630
   6916.00000000           -334            -37             48            173
   6920.00000000            -44           -149            -13           -154
   6924.00000000             30           -135            130            326
   6928.00000000            420           -470             28             -7
   6932.00000000           -487           -156           -325            203
   6936.00000000           -237            258            -18            267
   6940.00000000           -129           -131            -90            -20
   6944.00000000           -100            400            137           -229
   6948.00000000           -262            255            498             73
   6952.00000000           -403            -26           -229            -71
   6956.00000000           -366           -212             49           -294
   6960.00000000             15           -204            -10            181
   6964.00000000            258            319            -83             63
   6968.00000000           -187             74             83            208
   6972.00000000             60            140             80            171
   6976.00000000             56             43           -171           -168
   6980.00000000             52            -92           -273            579
   6984.00000000             15           -151            412            180
   6988.00000000             15            -51             24            -43
   6992.00000000           -164            -88            494            265
   6996.00000000           -366            560           -192            441
   7000.00000000            163           -370              3            -71
   7004.00000000             -9            238            -83            252
   7008.00000000            478             86            104           -250
   7012.00000000            127           -310             22           -490
   7016.00000000            107            259            216              3
   7020.00000000           -234             62           -384            -64
   7024.00000000             20            269             83            -56
   7028.00000000            192            -78           -532            150
   7032.00000000            383           -149            103            -74
   7036.00000000              9           -522            233            540
   7040.00000000            133            172            169            -50
   7044.00000000           -367            215            174           -380
   7048.00000000             71            116             -7             -5
   7052.00000000           -206             84            267           -210
   7056.00000000           -229            -57            -84             -3
   7060.00000000           -190           -178             87           -307
   7064.00000000             14            144            512            329
   7068.00000000             65            164            449           -122
   7072.00000000           -281            -24           -109            -82
   7076.00000000           -183            625           -242            -69
   7080.00000000            124           -119            257           -236
   7084.00000000            308           -269             -9            279
   7088.00000000              2            285            231            110
   7092.00000000            241           -199           -223            -56
   7096.00000000            198           -120           -344           -282
   7100.00000000             44           -152            304           -372
   7104.00000000            344            295            119            108
   7108.00000000             91            -85            183             23
   7112.00000000            141           -471            410           -142
   7116.00000000           -289           -207            526            280
   7120.00000000           -277            -22            295           -204
   7124.00000000           -217            331            -14             97
   7128.00000000             -7            355             54           -150
   7132.00000000           -217            155           -161             98
   7136.00000000             58             41              3           -138
   7140.00000000            -61             55             14           -193
   7144.00000000            223            365            257           -360
   7148.00000000           -181           -344            -47            400
   7152.00000000            -93           -191            369            -52
   7156.00000000             70           -265            182             64
   7160.00000000            215             51            122           -135
   7164.00000000           -197             -7           -196            185
   7168.00000000            -38             51           -155            156
   7172.00000000           -246            200             93            166
   7176.00000000             19             70            365           -271
   7180.00000000              5            -47            302             79
   7184.00000000           -557            141            151           -114
   7188.00000000            161            137            146            128
   7192.00000000            206            -47           -181             53
   7196.00000000            398            -59           -156            501
   7200.00000000            234            101            -26             24
   7204.00000000           -382            178           -129             32
   7208.00000000            -14           -119           -139            184
   7212.00000000            246            248           -108            197
   7216.00000000           -113             12            128             -1
   7220.00000000           -142            223             20            345
   7224.00000000            -71            237             63            118
   7228.00000000            205            104           -108            262
   7232.00000000            257           -206             33            390
   7236.00000000             33            -19            354            118
   7240.00000000           -277           -111           -218           -332
   7244.00000000            -29           -210           -158            -22
   7248.00000000            -94            254           -123             18
   7252.00000000            -40           -260            132            270
   7256.00000000            -27             39            -44            155
   7260.00000000            -83           -360            -99             -6
   7264.00000000           -154            347            -88            306
   7268.00000000             -6             95           -125           -173
   7272.00000000            225             63           -125             24
   7276.00000000            -35             31            -84            -43
   7280.00000000            358           -122            168            -64
   7284.00000000           -122             27             98           -115
   7288.00000000            252           -181            -14           -215
   7292.00000000            340             40           -108           -261
   7296.00000000            209            -60            110           -178
   7300.00000000           -161           -124            -20             -8
   7304.00000000             57            165           -134            -92
   7308.00000000             57           -111             67           -100
   7312.00000000             75           -223              4            263
   7316.00000000           -130             45            120            -48
   7320.00000000            -64           -264            166             94
   7324.00000000            168           -169           -154             80
   7328.00000000            263             51            206             41
   7332.00000000            171           -167            -35             -7
   7336.00000000           -146            -54             -4            -57
   7340.00000000            136             41             51            266
   7344.00000000            183            369            -41             75
   7348.00000000            195             31           -115            -91
   7352.00000000             49            153            156             73
   7356.00000000           -180            131            260             57
   7360.00000000           -295            -91            145             47
   7364.00000000            -71           -166             55            -89
   7368.00000000           -221           -161              1            -34
   7372.00000000            -51             13             51              8
   7376.00000000             -8             10            -38           -181
   7380.00000000             20            178             -7            124
   7384.00000000            113             -8            -55            -16
   7388.00000000           -118           -184            -78            -26
   7392.00000000           -118           -149            -32           -177
   7396.00000000             64            209           -191            160
   7400.00000000            142             88            -96             -1
   7404.00000000           -114            101           -303            113
   7408.00000000            291             14             58            -99
   7412.00000000           -201             58              6            156
   7416.00000000             94            162            -70             58
   7420.00000000           -215             11             17             63
   7424.00000000           -236            -12           -239            469
   7428.00000000             29            171           -267           -152
   7432.00000000            -99            -54           -150           -302
   7436.00000000            280           -145             39             45
   7440.00000000            124             24            375           -116
   7444.00000000            212           -144             78             94
   7448.00000000            424            327            -82           -276
   7452.00000000            -12            153             77            115
   7456.00000000            170            -13           -131              4
   7460.00000000           -207             94           -187            156
   7464.00000000            -14           -112           -204             17
   7468.00000000             37             24            -85           -186
   7472.00000000             74            278            -10            -96
   7476.00000000            266             41            182             38
   7480.00000000            121            262            213            139
   7484.00000000             23             18            136            -19
   7488.00000000            -14            -69            -19            166
   7492.00000000            303            -61              0             50
   7496.00000000            -87            -29             38            182
   7500.00000000            341            -78            -84            210
   7504.00000000            110           -121            -67           -104
   7508.00000000            -69            137            -52           -163
   7512.00000000           -153            -93             74            -26
   7516.00000000              9            -72            -73            -54
   7520.00000000             45            -10             28            -59
   7524.00000000             26             82           -152           -151
   7528.00000000            -26            -29           -142             98
   7532.00000000            163             -5            -27            156
   7536.00000000            119             12             -9           -233
   7540.00000000             84             27           -100              3
   7544.00000000            209            -80             64             74
   7548.00000000             25            -25            208           -134
   7552.00000000             81             57              0           -327
   7556.00000000            121             48            -63            -43
   7560.00000000            -17             91             22            232
   7564.00000000            -41           -153           -153            -13
   7568.00000000            -26            -78            126             88
   7572.00000000            -55            -27            105            -93
   7576.00000000           -176             67             65              4
   7580.00000000             78            110             35           -189
   7584.00000000            -25            116            186             83
   7588.00000000              4            -45           -216             63
   7592.00000000             62            147           -132            142
   7596.00000000              9           -117             72            -72
   7600.00000000             31           -114           -256             -3
   7604.00000000            -98            -74            261           -220
   7608.00000000           -104            -76            107            -78
   7612.00000000           -101              0             89            117
   7616.00000000           -111            -46            -60            189
   7620.00000000           -139            -48              4            292
   7624.00000000           -160            -66             70            199
   7628.00000000             40           -182            -19             46
   7632.00000000           -137           -191             35            117
   7636.00000000            -66             35            -77            -73
   7640.00000000            -63             78            -43             37
   7644.00000000            -31            109            175             84
   7648.00000000             12            100             73            -43
   7652.00000000              6           -121            -69           -124
   7656.00000000             93           -112            -23           -126
   7660.00000000            -35             65           -193             41
   7664.00000000            -56            162            -77           -100
   7668.00000000             26            -82            -41             84
   7672.00000000           -265             17           -109             42
   7676.00000000             26           -120             39             30
   7680.00000000              3           -171            -14             83
   7684.00000000           -115            -26             10             26
   7688.00000000            -93           -145             95            -10
   7692.00000000             71            -19            107           -175
   7696.00000000            205            245             17             48
   7700.00000000             36            -54             86             26
   7704.00000000            -18           -157            -59             23
   7708.00000000             24            -66             56            -73
   7712.00000000             76            160             28            -10
   7716.00000000             25            -46            -52            -69
   7720.00000000             27           -150             19           -104
   7724.00000000              8           -157            -83            -23
   7728.00000000             57           -158             32             23
   7732.00000000             69             72            181             61
   7736.00000000            164            -30             32            -33
   7740.00000000           -130            257            -27            108
   7744.00000000            202            -79             58            -69
   7748.00000000            -13             91            -20            -37
   7752.00000000           -231            124            132            -49
   7756.00000000            112             87           -142             27
   7760.00000000            150            132             15             62
   7764.00000000            -94             49            158              3
   7768.00000000            -55            -35           -165            113
   7772.00000000             51            -66             78             61
   7776.00000000            -20            -11              8             56
   7780.00000000            -48            -47            -97           -140
   7784.00000000            140           -141            -67            159
   7788.00000000             54            -55            -93              4
   7792.00000000             51            179            147            -84
   7796.00000000            -10            -81            155             18
   7800.00000000            -80             40             18            169
   7804.00000000             67             73           -126            -62
   7808.00000000            -36             50           -101             61
   7812.00000000             74            149             79              6
   7816.00000000            -94             12             84            -53
   7820.00000000            -24             27            -55             94
   7824.00000000            -12            -27             80            -25
   7828.00000000             63             50            -32             91
   7832.00000000            -59           -174            -12            -81
   7836.00000000           -167             46            -23             -7
   7840.00000000            -46             34            -38            -29
   7844.00000000            -30           -112            -10             -3
   7848.00000000            148            -60             -0            -41
   7852.00000000             62            -53             45             73
   7856.00000000           -116           -113            -22            -41
   7860.00000000            -89             59             -3            -23
   7864.00000000             26             -5            -43             -9
   7868.00000000             71           -145             14            117
   7872.00000000            -86             25              1              2
   7876.00000000            -75             45            -58             17
   7880.00000000             47            -72             31            -63
   7884.00000000             52            -89            -74            -56
   7888.00000000           -102             31            -83            -97
   7892.00000000            -70            -66             42            -25
   7896.00000000             91             -6             52             -1
   7900.00000000            -48            -30             28            188
   7904.00000000              8           -142             63           -149
   7908.00000000            176            -25            -23             56
   7912.00000000           -129            -91             63             64
   7916.00000000            -13            -27              9             32
   7920.00000000             -8             17             81            -29
   7924.00000000             65             55            -93            -67
   7928.00000000            -24            -44            149            -55
   7932.00000000            -76           -118           -107             58
   7936.00000000            -31             -7           -103             45
   7940.00000000             50            -34            -50             50
   7944.00000000            -12            -52            -84            -21
   7948.00000000            -52             57             47            -59
   7952.00000000             56           -115            -27             24
   7956.00000000            -30            -11            -42             22
   7960.00000000           -196            -57            -25            -56
   7964.00000000            -48            -87            -32             66
   7968.00000000             58            118             -7             56
   7972.00000000             74            -13            -81           -158
   7976.00000000           -167           -101             56             11
   7980.00000000            -65            -17            -74            -53
   7984.00000000             36             57            117             69
   7988.00000000             -4             17             43              3
   7992.00000000             82           -157            -65             34
   7996.00000000            -81              1             34            -36
   8000.00000000             89             41            115             10
   8004.00000000             96            103            -55             27
   8008.00000000            -28             -5              2            -42
   8012.00000000             47            -29             -9             89
   8016.00000000             -8             83            -12            -14
   8020.00000000            -52             55            -16             39
   8024.00000000            162             13             10             35
   8028.00000000             -6             21            -28             52
   8032.00000000             40             11            -18            -83
   8036.00000000            -71             61            146            -41
   8040.00000000            -18             12            -20             53
   8044.00000000             38             60             -1             -6
   8048.00000000            -36             -2              9             41
   8052.00000000             10             63              3            -61
   8056.00000000           -136             -5            -45             49
   8060.00000000              6             44              9             78
   8064.00000000            -34              3            -82             89
   8068.00000000            108              4            -93             42
   8072.00000000             73             24            -59             64
   8076.00000000             -7             85             83            -56
   8080.00000000            -24             -3             60             68
   8084.00000000             14           -129             72             17
   8088.00000000              1             32             66            -61
   8092.00000000            -95             24             90            -49
   8096.00000000             53             47            -28            -34
   8100.00000000              6            -18             11            -72
   8104.00000000            -37             17             69             64
   8108.00000000             56              3            -95             34
   8112.00000000             75            -25             90            -93
   8116.00000000            -39            -14             77              5
   8120.00000000             -6            107             45             -2
   8124.00000000            -18              9             -8            -28
   8128.00000000            -33            -39            -71            -68
   8132.00000000              6           -108            119             41
   8136.00000000            150             82             59            -57
   8140.00000000            -61             63              5             57
   8144.00000000            -19             90            -15            -85
   8148.00000000             11            -63             86              5
   8152.00000000            -65            120             82            -56
   8156.00000000            -43            -16            -92             43
   8160.00000000             53            112           -136            -17
   8164.00000000              9              3             -5              7
   8168.00000000            -33             -5            -49             48
   8172.00000000             -8              9            124            -97
   8176.00000000            -26            -40             69            -44
   8180.00000000             -4             82             70             43
   8184.00000000            -13             27            -88            100
   8188.00000000             88             -5             59             54
##END NTUPLES=NMR FID
##END=
