##TITLE=CEC-PhSi2-flow(sequence-1030)-06-09-26
##JCAMP-DX=5.01 $$ Nanalysis NMReady v2.2.5.1
##DATA TYPE=NMR FID
##DATA CLASS=NTUPLES
##ORIGIN=Nanalysis Corp.
##OWNER=Nanalysis
##LONG DATE=2026/06/09 10:38:47-0400
##SPECTROMETER/DATA SYSTEM=NMReady 60/nanalysis-X542
##INSTRUMENTAL PARAMETERS=^1H
##TEMPERATURE=33.000014
##PRESSURE=1.000000  $$ Bar
##RESOLUTION=0.00001999999949
##SAMPLE DESCRIPTION=None
##.OBSERVE FREQUENCY=60.55081011971136
##.OBSERVE NUCLEUS=^1H
##.SOLVENT NAME=Toluene
##.ACQUISITION MODE=SIMULTANEOUS
##.SHIFT REFERENCE=INTERNAL, Toluene, 4096, 5.00000000000000
##.SOLVENT REFERENCE=5.00000000000000
##.PULSE SEQUENCE=1D
##.DELAY=(0.000000,0.000000)
##.FIELD=1.422198  $$ Tesla
##.OBSERVE 90=15.789399
##.ACQUISITION TIME=6.55279983446235
##.ZERO FILL=0
##.AVERAGES=4
##.DIGITISER RES=16
##.SPINNING RATE=0.000000
$$##.PHASE 0=-20.00000000000000
$$##.PHASE 1=79.00000000000000
$$ NMReady specific parameters
##$SCANS=4
##$SCAN DELAY=1.000014
##$TOTAL DURATION=31.338313
##$X_PULSE=14.210050
##$RECVR_GAIN=12
##$SWEEP WIDTH=20.000000
##$RELAXATIONDELAY=1.280964
##$ZEROING=7.000000
##$APODIZATION=0.030000
##$PHASECORRECTION=-20.000000,79.000000
##$PIVOT=0.000000
##$DT=0.000020
##$LOCKOFFSET=2.080000
##$SPECTRALCENTER=5.000000
##$DECIMATION=40
##$LOWESTF2=-322.245965
##$T2NUCLEUS=1H
##$PULSE_AMPLITUDE=17.500000
##$PLOTTYPE=1D
##$INTEGRALS IS MANUAL=False
##$INTEGRALS REFERENCE ENERGY=340.853023026241
##$EXPERIMENT_SETTING_Apodization=0.03
##$EXPERIMENT_SETTING_Decoupling Mode=Off
##$EXPERIMENT_SETTING_Digital Resolution=0.02 Hz
##$EXPERIMENT_SETTING_Dummy Scans=0
##$EXPERIMENT_SETTING_Dwell Time=0.50 us
##$EXPERIMENT_SETTING_NPoints (Complex)=8192
##$EXPERIMENT_SETTING_Nucleus=1H
##$EXPERIMENT_SETTING_Pulse Angle=80.37, °
##$EXPERIMENT_SETTING_Pulse Width=14.21 us
##$EXPERIMENT_SETTING_Receiver Gain=12.00 dB
##$EXPERIMENT_SETTING_Receiver Gain (dB)=12, Auto
##$EXPERIMENT_SETTING_Scan Delay=1.0 s
##$EXPERIMENT_SETTING_Scans=4
##$EXPERIMENT_SETTING_Solvent=Toluene
##$EXPERIMENT_SETTING_Spectral Center=5.00 ppm
##$EXPERIMENT_SETTING_Spectral Width=20 ppm
##$EXPERIMENT_SETTING_TX Frequency=60.550810 MHz
##$EXPERIMENT_SETTING_Time Per Scan=7.8 sec
##$EXPERIMENT_SETTING_Zero Filling=7
##$RDC_ENABLED=1
##$RDC_TYPE=CONT5PAR
##$RDC_DATA=(0.145553,5.475700,2.437884,0.765625,0.888815)
$$ End of NMReady specific parameters
$$ Bruker specific parameters
$$ --------------------------
##$DATE=1781015927
##$SI= 65536
##$TDeff= 8192
##$SFO1= 60.55081011971136
##$O1= 302.75405059855677
##$SF= 60.55050736566076
##$BF1= 60.55050736566076
##$AQ= 6.55279983446235
##$SWH= 1250.00003157765696
##$SW= 20.64382010920015
##$SR= 0.00000000000000
##$OFFSET= 15.32198666466527
##$FIDRES= 0.15258789447969
##$O1P= 5.00000000000000
##$TD= 16384
##$DW= 399.99998989515007
##$SPECTYP= PROTON
##$NS= 4
##$DS= 0
##$DR= 16
##$DE=1.000014
##$RG=12
##$P1=14.210050
##$P= (0..2)
0.0 14.210050
##$PHC0= 59.50000000000000
##$PHC1= -79.00000000000000
##$PH_mod= 1
##$WDW= 1
##$LB= 0.02999999932945
$$ End of Bruker specific parameters
$$ ---------------------------------
##NPOINTS=8192
##DELTAX=0.0008000000
##NTUPLES=NMR FID
##VAR_NAME=TIME,FID/REAL,FID/IMAG,PAGE NUMBER
##SYMBOL=X,R,I,N
##VAR_TYPE=INDEPENDENT,DEPENDENT,DEPENDENT,PAGE
##VAR_FORM=AFFN,AFFN,AFFN,AFFN
##VAR_DIM=8192,8192,8192,2
##UNITS=SECONDS,ARBITRARY UNITS,ARBITRARY UNITS,
##FIRST=0.000000,1212.055750,373.474592,1
##LAST=6.552800,0.000052,-0.000041,2
##MIN=0.000000,-1095.354122,-808.502541,1
##MAX=6.552800,1212.055750,951.909944,2
##FACTOR=0.00079999997979030013,0.00000056440761120635,0.00000056440761120635,1
##PAGE=N=1
##DATA TABLE= (X++(R..R)), XYDATA
      0.00000000     2147483000     1382402541     -220035768    -1518790930
      4.00000000    -1940714654    -1380941965     -301012071      691931645
      8.00000000     1159844050     1054768234      568260796       52039899
     12.00000000     -226573488     -262039750     -279177290     -470069229
     16.00000000     -768116683     -834108587     -394204943      458488043
     20.00000000     1263342251     1508999284      988623685      -59010565
     24.00000000    -1097843021    -1584552901    -1283130430     -378037852
     28.00000000      610787977     1151494307     1038104023      499403210
     32.00000000      -39206713     -283826026     -277470478     -253586048
     36.00000000     -375719122     -569353353     -592098293     -257947959
     40.00000000      375157852      990348579     1190474132      767428107
     44.00000000     -130399150    -1019405393    -1386782736    -1016916509
     48.00000000     -146945780      701212412     1067059635      843575474
     52.00000000      281406841     -218783546     -403687973     -289020201
     56.00000000     -105218715      -70557822     -219013454     -366781124
     60.00000000     -276731319      124836364      641350029      913410269
     64.00000000      678984767        -129815     -752568250    -1123757245
     68.00000000     -884798884     -182623212      556819425      919880201
     72.00000000      752320620      241265713     -255573817     -450978969
     76.00000000     -321711660      -76464022       38535553      -59925802
     80.00000000     -230183705     -233493036       35894755      452149226
     84.00000000      714032506      575395554       45101482     -586808986
     88.00000000     -935557599     -773463894     -191050072      464849818
     92.00000000      818957488      695423013      226681906     -267223668
     96.00000000     -493110988     -380269712     -100682966       92174955
    100.00000000       65647677      -96444220     -175097847      -28491012
    104.00000000      293651313      551397866      507571064      110705553
    108.00000000     -429423822     -780362790     -702661483     -221810926
    112.00000000      381199994      753648620      686549617      256582680
    116.00000000     -243150155     -511208625     -433333303     -147330025
    120.00000000      100286239      137764564        3492945     -116751386
    124.00000000      -55513587      179883749      406223633      410164857
    128.00000000      122986456     -316509159     -642037917     -622819868
    132.00000000     -234238415      308848371      688199425      669027389
    136.00000000      282034968     -213654134     -510196408     -465438036
    140.00000000     -182898622       99200620      192916805       97097771
    144.00000000      -43035861      -65587393       67748084      251783007
    148.00000000      311686973      133886900     -213200791     -516956391
    152.00000000     -547480015     -237536861      246046340      605291866
    156.00000000      616511096      283787070     -171551942     -470346782
    160.00000000     -466638055     -216698165       85028247      241891976
    164.00000000      194511958       32450464      -76392827      -29746115
    168.00000000      127029791      228309392      134788696     -133986521
    172.00000000     -401346498     -456436743     -224983408      174246682
    176.00000000      497145363      540896927      280155005     -124189079
    180.00000000     -429014045     -461886099     -235257058       83729285
    184.00000000      279640421      254354086       78386385      -77962275
    188.00000000      -88117312       30407602      146973113      127945923
    192.00000000      -50156775     -270404182     -359096355     -220993723
    196.00000000       86386290      383439804      469422975      280365103
    200.00000000      -80280270     -384364100     -449133525     -250517972
    204.00000000       62989616      281222630      291735769      127690039
    208.00000000      -58465567     -127444331      -54495605       70900236
    212.00000000      116542784       18761558     -158026971     -272863250
    216.00000000     -204564200       32970237      296746694      401619432
    220.00000000      263021565      -46146629     -336317754     -424865315
    224.00000000     -268809087       24167575      264677313      318194737
    228.00000000      177865837      -28269382     -152507982     -128047229
    232.00000000       -6801547       86641817       61054376      -65448238
    236.00000000     -177015698     -161199018        4053278      219510900
    240.00000000      331568286      240209685      -12882982     -280093980
    244.00000000     -389926567     -273711431       -3989443      246028702
    248.00000000      327931361      210517685       -4804505     -168180274
    252.00000000     -182141098      -72848440       51471191       80454149
    256.00000000        2970677     -103053692     -124376757      -18532490
    260.00000000      156978819      269650789      217147089        9942053
    264.00000000     -232481892     -348229578     -262302939      -21538210
    268.00000000      223557757      326313300      234221646       17380964
    272.00000000     -172384348     -224950936     -132475469       16236266
    276.00000000      100057232       66239735      -31113998      -92463358
    280.00000000      -47862536       82524258      192604646      184657839
    284.00000000       36734179     -165764449     -288361491     -237616893
    288.00000000      -39552490      188798514      306423697      238035595
    292.00000000       39638030     -159992745     -236420664     -160347971
    296.00000000       -7735820      104939621      105393732       23271220
    300.00000000      -59963256      -64109846       19015136      117595120
    304.00000000      138073512       42871053     -113184677     -225261527
    308.00000000     -200965696      -37510373      161513129      272355101
    312.00000000      221274903       37598527     -155519517     -240005107
    316.00000000     -172581377      -16217399      121567162      153835265
    320.00000000       73450707      -37599448      -89699248      -48648563
    324.00000000       46252721      101001210       59275957      -58026073
    328.00000000     -161009269     -164573489      -47612476      117471593
    332.00000000      223846691      195607388       44873152     -133121185
    336.00000000     -221222627     -173750896      -23053949      122753360
    340.00000000      175906450      108410466      -11823529      -92831535
    344.00000000      -82095573       -3708777       65063494       61743089
    348.00000000      -16393114     -102508951     -123626328      -46843488
    352.00000000       81810148      174772324      163289800       43056555
    356.00000000     -114454882     -204291661     -165688802      -25830975
    360.00000000      120444530      180032331      120570102       -1539668
    364.00000000      -96500919     -102958859      -33621461       48090644
    368.00000000       73285370       21162763      -60251187     -101365619
    372.00000000      -64379820       41004804      135286886      146751166
    376.00000000       53569353      -85395486     -178799216     -161810254
    380.00000000      -45263568       93980780      163841017      130069784
    384.00000000       23043237      -79228346     -110414994      -64265743
    388.00000000       22243223       70478989       50696503      -17187432
    392.00000000      -70998115      -59403993       15862220       97118867
    396.00000000      119239531       54567283      -60489264     -146340631
    400.00000000     -143896425      -51357341       71240859      147878305
    404.00000000      125925844       31093006      -71485611     -115691018
    408.00000000      -77551756        2664517       65707330       63228121
    412.00000000        8310572      -48743608      -54915763       -2576353
    416.00000000       69409608       98406891       53828448      -37690531
    420.00000000     -117220265     -125433593      -50963858       57352683
    424.00000000      130956243      121772051       38030148      -63174208
    428.00000000     -113786688      -90336145      -12012766       57344600
    432.00000000       69438512       29585839      -28153773      -50231478
    436.00000000      -20655076       39543810       72427637       50821475
    440.00000000      -20108250      -85815500     -100760005      -44688326
    444.00000000       46356976      112154347      107984830       39874995
    448.00000000      -52629530     -105765458      -90219505      -20231386
    452.00000000       48805970       71702675       41856788      -12232162
    456.00000000      -46470598      -33314564       12017864       49977318
    460.00000000       43429535       -5372412      -60592989      -77816405
    464.00000000      -39855883       33436142       92456199       93136741
    468.00000000       36955591      -44443642      -94494414      -80975342
    472.00000000      -19363255       48024235       76997303       48720822
    476.00000000       -6092787      -46022630      -44113810       -5617020
    480.00000000       32072141       39411248        7891430      -41347647
    484.00000000      -60865510      -35971895       19557278       70885873
    488.00000000       76677276       29753092      -35636680      -79637954
    492.00000000      -74430450      -17804733       44318185       74726115
    496.00000000       55341130         897397      -42444271      -50665091
    500.00000000      -18724190       23143173       37923007       18318169
    504.00000000      -21828252      -43949084      -32473657        7262070
    508.00000000       48781518       57499468       26694890      -27829007
    512.00000000      -67660460      -64309203      -19393499       36868103
    516.00000000       67114712       51589714        6552079      -34373370
    520.00000000      -44179981      -22878237       13310788       31828466
    524.00000000       21658944       -8543876      -34273830      -27833739
    528.00000000        3596966       37750367       49796169       25726898
    532.00000000      -21468394      -56134321      -57091483      -20307649
    536.00000000       28432859       56194194       45952370        8967818
    540.00000000      -30762755      -43327561      -25937203        7353614
    544.00000000       30955414       25600239        1237593      -26490554
    548.00000000      -26809824       -1752636       29966844       43109222
    552.00000000       25020058      -14063176      -46986352      -50129668
    556.00000000      -22457790       21223936       48365810       43749492
    560.00000000       11719449      -26135964      -41449340      -30194988
    564.00000000         993551       24257770       24800235        2656358
    568.00000000      -15879882      -21116237       -4972261       19868054
    572.00000000       32649356       22688625       -6970619      -34913208
    576.00000000      -41174076      -19325192       17303379       42110927
    580.00000000       38535463       11156782      -21414759      -38143016
    584.00000000      -27249285       -2322439       18757822       21708842
    588.00000000        8027020      -11003872      -20745608       -9242411
    592.00000000       11267331       25768255       18260295       -4016413
    596.00000000      -26598986      -33740192      -15965986       15463213
    600.00000000       34780303       35367507       13141603      -15711664
    604.00000000      -31221201      -25819663       -6283952       15589294
    608.00000000       20956250        8008474       -8194317      -16979515
    612.00000000       -8562971        8142090       20577827       15773684
    616.00000000       -2388641      -24787536      -29969151      -14373685
    620.00000000       11536065       32737279       33194446       15118505
    624.00000000      -12114188      -30407692      -26673873       -8080622
    628.00000000       14349403       24211013       13020539       -2722425
    632.00000000      -12966717      -10969495        3448778       13797235
    636.00000000       14912724        1354938      -17579649      -27286110
    640.00000000      -16195873        3409798       23282222       28525801
    644.00000000       14167448       -7032688      -24147745      -23906875
    648.00000000       -9575508        8186550       17921896       12378023
    652.00000000        1797619       -9563060       -8560076        2524973
    656.00000000       10369664       11775767         139474      -14550689
    660.00000000      -20295817      -13488786        5146428       21657666
    664.00000000       24435989       11820815       -6720983      -23493483
    668.00000000      -26085572      -11534038        7852089       18267267
    672.00000000       16371768        2377312      -10008792      -12751485
    676.00000000       -3578053        7900738       10737340        3958380
    680.00000000       -8978581      -14487133      -11594194        3402427
    684.00000000       17730951       24503188       13644926       -5108291
    688.00000000      -19015880      -19784650      -12299871        3949368
    692.00000000       16772740       16066472        4137961       -5677287
    696.00000000      -11421619       -5730548        3363801        9143443
    700.00000000        2274332       -8308443      -13305100       -9734136
    704.00000000        2414108       14730705       20543203       14812286
    708.00000000       -3872350      -18001051      -21317403      -11948456
    712.00000000        4502806       15975761       15109576        5865515
    716.00000000       -5088859      -10767155       -7133874         694033
    720.00000000        6984350        3674666       -4996041      -11189703
    724.00000000      -10854186       -1817455       11684179       17631553
    728.00000000       12367907          30827      -13799774      -20577982
    732.00000000      -14081999         116487       14190989       17239033
    736.00000000        8377101       -1380142       -8260828       -6775728
    740.00000000       -1299992        3605272        4010624       -1834287
    744.00000000       -9387061       -9003675       -1276572        8304776
    748.00000000       15269300       10955423        -169983      -13796483
    752.00000000      -17713915      -13081011         324200       13448476
    756.00000000       18465502       11325160         577434       -7639682
    760.00000000      -10683845       -3841623        2155725        5794490
    764.00000000        2760696       -5560141       -5396665       -3298528
    768.00000000        6555540       12392546       11820423        1336060
    772.00000000      -11984172      -18214953      -13852847       -2509173
    776.00000000       10257410       15463499       11743181        2423267
    780.00000000       -6839597      -10104164       -6113835         841473
    784.00000000        3158102        3779034        -998369       -3331755
    788.00000000       -1079848        4975280        9053510        8421566
    792.00000000         711199       -9025463      -15874208      -12254225
    796.00000000       -1647366       11441187       15506589       12918793
    800.00000000        3245358       -7001614      -12377440       -9073829
    804.00000000       -1526129        3608013        7257537        3084193
    808.00000000       -1915880       -3004170         647805        6793446
    812.00000000        7799325        3237279       -6392743      -13200197
    816.00000000       -9813845       -2079028        8865691       14875277
    820.00000000       14653027        3896793       -7597828      -12399080
    824.00000000       -9488147       -3062571        4015325        6099537
    828.00000000        4983418         636717       -1004188        -697560
    832.00000000        2843563        4575499        1263491       -3945723
    836.00000000       -8075653       -9609633       -1585986        6910712
    840.00000000       13857129       13008219        3593100       -6741566
    844.00000000      -13211434      -10292233       -1974160        2652834
    848.00000000        8851552        7625094        2016714       -3102056
    852.00000000       -4097765       -2243723        2036824         937224
    856.00000000       -2393907       -5872760       -6672179        -718593
    860.00000000        5666492       12217962       10372096        3134917
    864.00000000       -5051152      -10145024      -10064049       -3496482
    868.00000000        3847399        8237745        9024425        3947621
    872.00000000       -2216474       -5113688       -3451207         340581
    876.00000000         389992       -1895437       -4015214       -5017505
    880.00000000        -635772        3518028        9865408        9596848
    884.00000000        4901208       -4531068      -11167618      -11245226
    888.00000000       -6427338        4516010       11632155       10601985
    892.00000000        4968802       -1821465       -6724217       -6516583
    896.00000000       -2198866          14336        1581280       -1353303
    900.00000000       -3394915       -1874027        2705091        5626364
    904.00000000        6788704        3812167       -2964871       -8434228
    908.00000000      -11505223       -6204546         521485       10624817
    912.00000000       11872348        7260979           6114       -5061247
    916.00000000       -7102996       -4691208       -1501556        1821423
    920.00000000        1297262         717830           2526        2930672
    924.00000000        5630319        4320146        2785143       -2691461
    928.00000000       -9289277       -9280355       -5790421        2204618
    932.00000000       11248905       10382932        8297102        -177938
    936.00000000       -7454737      -10171343       -5502539       -1169706
    940.00000000        4521452        5467491        2372836            373
    944.00000000         635034        1535480        2844016        1789424
    948.00000000       -1842870       -6701695       -7099091       -4585010
    952.00000000        2025110        8198059        9488641        6381563
    956.00000000         263041       -6806563       -9897406       -6598247
    960.00000000       -1282165        3523223        5710891        4718548
    964.00000000        2466096         130946       -1692086       -1161998
    968.00000000        -419271       -1253258       -3106495       -3765111
    972.00000000       -2632250        1172732        6709460        8230856
    976.00000000        5493406       -1110145       -7234908       -8408388
    980.00000000       -6083738        -288983        3802250        8600252
    984.00000000        4836703        1115446       -2802740       -3452279
    988.00000000       -2540627         218503         593036       -1019377
    992.00000000       -1426933        -667730        1978076        4614396
    996.00000000        4772822        4246105       -1054478       -4812018
   1000.00000000       -7944158       -6009351        -525817        4335395
   1004.00000000        7412945        5818965        2164111       -3751224
   1008.00000000       -5607735       -4614767        -492577        1366098
   1012.00000000         622010         380745         -38016         979238
   1016.00000000        2892696        3680103        2536866         369741
   1020.00000000       -3782037       -6186578       -4301773         214981
   1024.00000000        5171691        6010892        5149445        -360232
   1028.00000000       -2910460       -5139877       -4888628       -1728931
   1032.00000000        1526990        3058319        2263073        -197944
   1036.00000000         477461         343761        2025704        1183922
   1040.00000000        -588429       -2687614       -3793447       -2932846
   1044.00000000        -517378        4490598        4449038        5635233
   1048.00000000        1550829       -2645140       -5094867       -4866867
   1052.00000000       -2167108        2132245        2233108        2694877
   1056.00000000        1063585       -1426477         493365         573317
   1060.00000000        -150075        -330458       -1864996       -3254924
   1064.00000000       -2076490        -108285        2400587        5166047
   1068.00000000        5073695        1289630       -3388932       -4470959
   1072.00000000       -3889224       -2033699        2255053        4035677
   1076.00000000        2722429        2013701        -174456       -1032262
   1080.00000000       -1268970        -942726        -472741        -730377
   1084.00000000       -2429692       -2436228        -657399        3993529
   1088.00000000        3810180        2492045        1380746       -2467335
   1092.00000000       -5473124       -4495698       -1422168        3317344
   1096.00000000        5074317        3908380        1434066       -1254112
   1100.00000000       -1519813       -3163876       -2305215        -920812
   1104.00000000        -158691        -550880          -2913        1165295
   1108.00000000        2786536        2478649        1823168        -292672
   1112.00000000       -2722859       -5039687       -4008926       -1084927
   1116.00000000        1940890        4497906        3877868        2239400
   1120.00000000        -871736       -2172751       -3818538       -1851399
   1124.00000000        -630672         487626        1420818        1498127
   1128.00000000         671885        1450796        2066849         704096
   1132.00000000         -71684       -3212323       -4164648       -2665160
   1136.00000000          76760        2124729        3582751        4249896
   1140.00000000        1874229        -822331       -2828142       -3148424
   1144.00000000       -2402335        -271082        1366182        2260070
   1148.00000000        1813078        2011141        1060397         212007
   1152.00000000         -97334       -1192984       -1865215       -1830045
   1156.00000000       -1387903          80846        2085669        2524424
   1160.00000000        3465696        1250937       -1077327       -3168730
   1164.00000000       -3432767       -1110262         366460        2368943
   1168.00000000        2701583        2395266         462938         525777
   1172.00000000        -695145        -266705        -924244       -1133663
   1176.00000000       -1604990        -367814        -283370        3443899
   1180.00000000        2474617        2608527         924208       -1550596
   1184.00000000       -3343563       -3175429       -2462156         418527
   1188.00000000        1405690        2868702        1465258         247165
   1192.00000000        -558035       -1411834        -258718        -409726
   1196.00000000       -1471791        -969387         451201        1763750
   1200.00000000        1089452        2365513         623499         249370
   1204.00000000       -1110442       -2326519       -1737408        -495360
   1208.00000000        1066126        1296140        2322321        1435015
   1212.00000000        -364740         108652        -624396        -897941
   1216.00000000        -159361        -997188        -748211        -249144
   1220.00000000         893455        1916057        1384648         887735
   1224.00000000         712598       -1005437       -1773523       -2487050
   1228.00000000        -718057         732139        1757537        1475895
   1232.00000000        1031187         337951         -84472        -855450
   1236.00000000       -1199463        -572193         116865         278505
   1240.00000000        -152174         717523         764130         672485
   1244.00000000         912112         160300       -1533789       -1628721
   1248.00000000        -629317        -383566         644850        1752407
   1252.00000000        2088999         887026         304067       -1532693
   1256.00000000       -1782099       -1045638        -658985        1163237
   1260.00000000         465125        -285397         682790        -547182
   1264.00000000          32952         191900          -8770        -582348
   1268.00000000       -1723612        -925544         510304         929673
   1272.00000000         907871        2006565         434768       -1051144
   1276.00000000       -1546629       -1160991       -1747606         662676
   1280.00000000         477359         752708         492028         129488
   1284.00000000         385651        -771920        -483435        -873070
   1288.00000000       -1568016        -338304        -265836          -4783
   1292.00000000        1197437        1280276         864276         802898
   1296.00000000       -1710712       -1531194       -1444537        -845793
   1300.00000000         243029         547957         476427        1066185
   1304.00000000         338820        -631127          65087        -412756
   1308.00000000         124739       -1040067        -492966        -836694
   1312.00000000         114639         786503        1359935        1030708
   1316.00000000         -16690        -326452       -1487851        -781038
   1320.00000000        -589156       -1022571         816292        1289196
   1324.00000000        1070229         377495         514725        -187860
   1328.00000000        -716804        -272888       -1176405        -635055
   1332.00000000         -23965         814320         481531        1755285
   1336.00000000         430534         710299        -767373        -767879
   1340.00000000       -1299020        -964636          53867         908441
   1344.00000000        1044522         991297         818985         155697
   1348.00000000       -1025200        -677924        -284395        -321015
   1352.00000000        -632912        -105656         479471         840433
   1356.00000000         886296         793551         206960         -74786
   1360.00000000       -1002748        -850576        -762947         223490
   1364.00000000         318205         225386         977790        -353234
   1368.00000000         207335         233342        -221521        -681750
   1372.00000000       -1220978        -288729        -227599         116508
   1376.00000000         232997        1253458         770092         172859
   1380.00000000        -274181        -541894        -668517          55898
   1384.00000000         -32668         561874         157446         827678
   1388.00000000         -16978        -180429         389786        -281489
   1392.00000000        -804980        -339941        -557126        -124494
   1396.00000000          34556         116491         584158         -59188
   1400.00000000         560099         -58662        -296537        -590644
   1404.00000000        -470464         669540         -37548         313912
   1408.00000000         781826         419758         132835        -668424
   1412.00000000        -397214         -91466        -347644        -232020
   1416.00000000        -682140        -375627         741041         523147
   1420.00000000         880215          98304        -490182        -510453
   1424.00000000       -1088670        -398858         213036         200985
   1428.00000000         469798        1001846         741664         442819
   1432.00000000           6827        -661938        -179400        -359065
   1436.00000000         -47739         113139        -396310         -66691
   1440.00000000         239081         520395          66366         169971
   1444.00000000        -861390        -116078          59239        -498398
   1448.00000000         208791          72867         830488         630453
   1452.00000000        -193640        -279072        -146588        -556563
   1456.00000000         309865        1138090         723385         -26336
   1460.00000000         764328        -130939        -140585        -138035
   1464.00000000        -822529        -908778        -458762        -346944
   1468.00000000         370834         389932         452870         408764
   1472.00000000         632206        -101663         107936        -265434
   1476.00000000        -818736          99105        -437393         295912
   1480.00000000         688027         374453          20187        -285143
   1484.00000000        -121851        -827030        -568425        -596062
   1488.00000000         347588         832442         744476        1337724
   1492.00000000         473924        -510905         422049        -659573
   1496.00000000        -119768        -418048        -583412         173635
   1500.00000000         401057         809207         570604        -182886
   1504.00000000        -157776        -218891          52666        -327102
   1508.00000000          43002        -149724        1130923         485566
   1512.00000000         435353         271647        -258509        -442733
   1516.00000000        -525049        -454452         -24395        -606002
   1520.00000000         184831         411722         634004         412079
   1524.00000000         154738        -436647       -1129766        -873248
   1528.00000000        -204086         224086         882283         396140
   1532.00000000         786004         531651        -205618        -479862
   1536.00000000        -434115        -993810        -923341        -417426
   1540.00000000         173463         141825         922258        1024529
   1544.00000000         289402         222711        -248285       -1028820
   1548.00000000        -516496        -304917        -201909         879399
   1552.00000000         957735         504006        -127950        -676756
   1556.00000000        -409087        -296353        -831587        -251416
   1560.00000000        -201129          83158         158516         384525
   1564.00000000         767008         554331         -84761        -247726
   1568.00000000        -959622        -291152        -389918        -155331
   1572.00000000         719012         366861         227034         314107
   1576.00000000         -79567         100327        -352701        -795849
   1580.00000000        -587092        -794255         614777         235730
   1584.00000000         622422         402908         606820         341654
   1588.00000000        -588714        -867161        -604017        -155088
   1592.00000000        -291426         559591         706130         921570
   1596.00000000         -12987         -85202        -391479        -638214
   1600.00000000        -752619        -521841        -371974         184528
   1604.00000000         229268         196792        -385506         710529
   1608.00000000         -32606        -268892        -649562        -424125
   1612.00000000        -790785         186044         691291         616481
   1616.00000000         246638         147291        -173105        -371678
   1620.00000000        -152519        -426744        -136725         776170
   1624.00000000         448836         425634         -18580         307766
   1628.00000000         -57867         246722        -648532        -690844
   1632.00000000        -692562          86149         245283         489244
   1636.00000000         307495         308246         129794        -582627
   1640.00000000        -887589        -369659         -59704        -397309
   1644.00000000         376920         219109        -131765         358881
   1648.00000000         541146          88741        -483667        -355119
   1652.00000000        -910365        -160733        -564165         287797
   1656.00000000         921029         645540         115062        -380828
   1660.00000000        -634165        -323456        -222799         165089
   1664.00000000          18359          28969         225566         -45745
   1668.00000000          46824          35481         -87932        -287979
   1672.00000000        -792875        -120839        -361854          97104
   1676.00000000         457302         448774         257196         422428
   1680.00000000         -52621         -13624        -123877         233513
   1684.00000000         -48703        1000407         222697         731945
   1688.00000000           1595        -382568        -901972         168634
   1692.00000000        -252239         115800         377533        -206246
   1696.00000000        -193331         214725         631401         -36399
   1700.00000000         -61334        -286259        -652846        -692044
   1704.00000000         -20894        -218378         555085         569307
   1708.00000000          46945        -351800        -401018        -513620
   1712.00000000        -309612        -240779          25086         238001
   1716.00000000        -467521          21535         -21701         315552
   1720.00000000         278685        -381447          71536        -348208
   1724.00000000        -339917        -610065         211178         429919
   1728.00000000         707263         103985        -282176        -241034
   1732.00000000        -434343          89809         490947        -223583
   1736.00000000         535850        -239261         232939         224345
   1740.00000000         239413        -386133        -148353         -48377
   1744.00000000           1930        -548761        -231967         469843
   1748.00000000         192582          74613         -25578         -32129
   1752.00000000          46427        -288697        -444170         253116
   1756.00000000         280756         140905          67583          30400
   1760.00000000        -191633         102879         -38164          67345
   1764.00000000        -394403        -148911        -280999        -224674
   1768.00000000         393103         104368        -155003         209337
   1772.00000000         -92952         130179         205924        -317643
   1776.00000000        -117542        -308843         213350         266613
   1780.00000000         501964         172687         133152         167210
   1784.00000000         447710        -499672        -219978        -340408
   1788.00000000          26032         236548         -13041         173423
   1792.00000000         401532        -268278        -371707        -257587
   1796.00000000        -398780          88789         110779        -147344
   1800.00000000        -161640        -249289         101925        -424475
   1804.00000000         -66208         173780        -366910          60783
   1808.00000000        -352028         154632          60137          45928
   1812.00000000         138261        -466056        -364479        -276957
   1816.00000000        -199580        -191114         474505         320975
   1820.00000000         498333          11821        -392793        -370327
   1824.00000000         -85676         -85735        -335178         116895
   1828.00000000        -192103        -160529         -92384         135601
   1832.00000000         314964         197330           2010        -402166
   1836.00000000        -144711           4636        -184726         445359
   1840.00000000        -103098         126350         -49458         116258
   1844.00000000        -451836        -253729         145336         -50557
   1848.00000000           4278        -257278          37419          65434
   1852.00000000         174651          93245          42159         330209
   1856.00000000         -76386        -419409        -374057          -7155
   1860.00000000         231578         337210         647026          96283
   1864.00000000         216308        -205181         199395          19728
   1868.00000000         -70491         116519         -31125         243940
   1872.00000000         173783        -167481         408957         294890
   1876.00000000        -255020        -183350          36408        -426734
   1880.00000000        -312018         401158        -227852        -116033
   1884.00000000         -10669          83521        -345210        -276607
   1888.00000000        -137023        -342817         269617          33061
   1892.00000000          17396         175057         -52903         312385
   1896.00000000          62281         -33699        -715064        -198203
   1900.00000000        -211122          44069        -270624         234189
   1904.00000000          59229        -114972        -300210        -347325
   1908.00000000         115368        -341081        -394493        -470628
   1912.00000000         -45895         100954         133794         -56601
   1916.00000000          41083         238997        -553068        -108114
   1920.00000000         -53982        -106572         113203        -111285
   1924.00000000          54535         265749         283413        -103875
   1928.00000000        -467606         -14922        -178089        -304971
   1932.00000000        -253322         291081          48395         622484
   1936.00000000         -74320         -85618        -314190           7223
   1940.00000000        -479910        -216326         -98299         -36890
   1944.00000000         -45823          92276         -64993          13236
   1948.00000000        -411000         -75950        -441897        -192591
   1952.00000000         -50572         219683         -43462         235469
   1956.00000000         159688         185659         182112          95810
   1960.00000000         204037        -196129        -790134        -237538
   1964.00000000         -38933        -256925         -28619           -827
   1968.00000000         133701          -8662          -8687        -136943
   1972.00000000        -113523        -196392         -23525          55432
   1976.00000000         -10589         368830         -40507         321007
   1980.00000000          78573         226792        -106884        -124160
   1984.00000000        -234935         -99823         281017         627756
   1988.00000000         310796        -134546         -48783        -491325
   1992.00000000        -269774        -257486         -47745         144180
   1996.00000000        -180466          74291         176251          94870
   2000.00000000         250821         -79282         -29058        -281902
   2004.00000000        -393728          -1844          72101         117993
   2008.00000000          41290         -74649         -89295         -94639
   2012.00000000        -117268          48995        -292583        -125500
   2016.00000000         -82557        -157157        -151823         -83044
   2020.00000000          88313        -144050          77699        -198853
   2024.00000000        -368478        -277588         -87885         -13245
   2028.00000000          13319          75854         205709          63290
   2032.00000000         177695        -360621        -230497         -71357
   2036.00000000          10380          66549           3822         -76497
   2040.00000000         199820         361296         -23745         101810
   2044.00000000          98320         -41184         -52525        -200697
   2048.00000000          88767        -341553        -302292         -38286
   2052.00000000         193589        -190615         -83953         -45109
   2056.00000000        -267801         -98571         -25834         -38894
   2060.00000000          34893        -369496         243184         169085
   2064.00000000        -170836        -211886        -533590        -343706
   2068.00000000         -19471        -188172         183212         363234
   2072.00000000         474768          24459         188820         -25094
   2076.00000000         182258        -333361        -384449         116004
   2080.00000000        -209038          45668         111069         163829
   2084.00000000          12150          61634        -102331         -31881
   2088.00000000        -244092         -11298         -88572        -126277
   2092.00000000         -45162        -118334         311409         113854
   2096.00000000         -85380        -234751          96691           1135
   2100.00000000        -200253          -3727          63098         140710
   2104.00000000         -33800          88078          -2884        -196190
   2108.00000000        -184011        -104621        -293944        -249710
   2112.00000000         192001         173837         -20158         147233
   2116.00000000         149708        -205012         194783          16703
   2120.00000000         -46153         110750          34853        -191675
   2124.00000000          29546          97270          14656           7866
   2128.00000000         -42521         -75413        -274680        -321348
   2132.00000000        -357995         -56068         130898          50915
   2136.00000000         -11933        -173481        -389820         -95007
   2140.00000000        -100962          95251          79382        -151619
   2144.00000000         203628        -106413          81064         -75605
   2148.00000000         138008        -212240          10791        -290464
   2152.00000000        -320960         168473          31602        -167383
   2156.00000000         288399         216284         128843          28825
   2160.00000000        -371474        -105797          71641         151300
   2164.00000000        -106183         -71468         -14646          14539
   2168.00000000         121030         -21035         204490        -137812
   2172.00000000        -204057          75416         -28804        -456515
   2176.00000000        -168285         -87999         199844          26414
   2180.00000000        -237260          91431          12782        -102277
   2184.00000000         -16411         -77282         -53695        -213971
   2188.00000000          63083          17907          63632        -214795
   2192.00000000         -72092         -85817        -223559        -233837
   2196.00000000         -13418         244752          48870          28430
   2200.00000000        -196201        -139436        -334981        -153286
   2204.00000000        -251548         -97342         -73262          87532
   2208.00000000         138735        -151188          52559         137187
   2212.00000000        -126852        -282815        -156871        -377622
   2216.00000000         -95319        -158524         -38274        -182586
   2220.00000000         128345        -164419        -167299        -183001
   2224.00000000         -61500          52586         105629        -260413
   2228.00000000        -234741         -73973        -296259         142173
   2232.00000000         -14806          85105         173152         -14141
   2236.00000000         -19488         -16514        -126694          66772
   2240.00000000          39800        -167550        -134791        -348197
   2244.00000000        -298698         -44355         -85661         113099
   2248.00000000        -142579        -109983          68564        -242214
   2252.00000000         140686         -33362         109615        -124072
   2256.00000000          18779          76593          65857           5057
   2260.00000000        -156032         -59219          -9338         -66218
   2264.00000000         -83277         100773         -46686          84206
   2268.00000000         -40188        -225301         -50499         -60734
   2272.00000000        -115152        -105477        -204463           8582
   2276.00000000        -111381        -232619        -202725          67143
   2280.00000000         211256          47771        -148536          80317
   2284.00000000        -268581         -50221         148151        -124931
   2288.00000000        -362046         165263         -16722        -272592
   2292.00000000          10961           6440          91021          44120
   2296.00000000         175929        -157794          82323        -149002
   2300.00000000        -188308         -97558         -49956          88215
   2304.00000000          43751         -16578        -134966         -96348
   2308.00000000        -123483         153895         104952         -32384
   2312.00000000        -104558         -25313         -22318          57415
   2316.00000000         -33361        -103799          30765           1664
   2320.00000000          19738        -333722        -320410        -242408
   2324.00000000        -254770         -12062        -233391          23922
   2328.00000000          -4459         192434        -192976           7568
   2332.00000000        -213047         138987           6727        -100047
   2336.00000000        -110918          96541         -31103        -125394
   2340.00000000          -1027          39595         -53425         185427
   2344.00000000         184817          53617         -76067          97717
   2348.00000000         124399        -334307         103286         -35200
   2352.00000000        -196821          21126          21379        -215918
   2356.00000000        -168989         151240          -7879         170063
   2360.00000000         -85527          30577        -227082        -185510
   2364.00000000          89690         -69849         -37700         -93963
   2368.00000000          30659         112529        -102028        -114337
   2372.00000000         -57244         -39919         -40263         171910
   2376.00000000        -118335        -307463        -178342         -31190
   2380.00000000         -44630          25654          96142          59402
   2384.00000000          43341           5419        -167190          -9456
   2388.00000000        -297153           9792        -164477         -29176
   2392.00000000        -281993          43923         211686        -138276
   2396.00000000        -267999        -199284         -69598          79645
   2400.00000000          -4717         256877         -21614         124739
   2404.00000000         -96327         -95190         -17536          12456
   2408.00000000        -112476        -259949          25381           5877
   2412.00000000        -158164        -125497          84452         172664
   2416.00000000         184038         129240        -119509         -39832
   2420.00000000         -65601         -71602         -78768          68936
   2424.00000000         -24148          53456        -322012         -13371
   2428.00000000          -4023         -54148          11997         -12863
   2432.00000000        -126503         -88893          42203        -159685
   2436.00000000         -40030        -142827         -63005         -12542
   2440.00000000          28252         -21808          91179          38600
   2444.00000000         -87190         -70680        -140507        -124600
   2448.00000000          91556        -269402        -140409         122567
   2452.00000000         -24299          27995          54376          80537
   2456.00000000           -812        -225862          62424        -226435
   2460.00000000         -57475          -8395          24266         -41581
   2464.00000000        -143169          24417         -71180        -115445
   2468.00000000        -185519        -120822        -135268          14112
   2472.00000000         108643         299690        -191626         -76414
   2476.00000000         -20562          64183        -169253          -1087
   2480.00000000         -55992        -159113          66279          28142
   2484.00000000          75546         -28438          22024          59822
   2488.00000000         -55416         -22885          74835         129803
   2492.00000000         190938         125031         -86741          31975
   2496.00000000         -58517         -60437        -202927         -58219
   2500.00000000         -80353         -70950         -51850         -43320
   2504.00000000         -47011          65245          -7049         -52438
   2508.00000000         103323         -54268        -116788         -71770
   2512.00000000          -3510        -124803        -102107         -22034
   2516.00000000         -39922        -137860        -109299         -61670
   2520.00000000        -187527         -53110        -103739         -61603
   2524.00000000          80002        -128970        -100260          86133
   2528.00000000         -75656         185793          -5674         -28721
   2532.00000000        -103990          -8654        -164612         -11223
   2536.00000000         -59209          72764         -59941        -143468
   2540.00000000         -85684         -28470         -31636          -3527
   2544.00000000          82227         -88804          82855          25205
   2548.00000000          26889          75152          92708          -7875
   2552.00000000        -157993         -51787        -184458        -144924
   2556.00000000        -127960          99552         215778        -191759
   2560.00000000          31257            996        -114842         -34670
   2564.00000000         -27868         -60166           4628          25991
   2568.00000000         -42626         -72600        -119423         -46516
   2572.00000000        -218485        -103564          33540         -97518
   2576.00000000        -210865        -160417          38449          14936
   2580.00000000         -34811         -62448           1661         -45865
   2584.00000000          15051        -112476        -128206        -142081
   2588.00000000         -87872          -7807          66555         -16874
   2592.00000000         -22785         -88530        -101072         -11293
   2596.00000000          22757        -197425        -164185          61416
   2600.00000000          84261           7131          48778          11753
   2604.00000000          57704         -70134         110339           2747
   2608.00000000          45998          18148         122754         -32273
   2612.00000000         181951        -174080          19023          19691
   2616.00000000          73063         126326         -37259         115449
   2620.00000000          18512         -57013        -122834         -60261
   2624.00000000          -9620         -38273         -71179          68798
   2628.00000000           -171         -97486          35077         -27331
   2632.00000000         260903         -25535        -184200         -19532
   2636.00000000          -6889          27273           5688            976
   2640.00000000         -69500         -55000         -24973         -42605
   2644.00000000         -35758         -20623         -71040          50884
   2648.00000000         -67157          -6911         -71033        -105657
   2652.00000000         -72850        -108458          -3419          89939
   2656.00000000         -37819         -34953         -26164         -63455
   2660.00000000          38712         -24173         -41780         -22358
   2664.00000000        -177746         -70588        -115478         -63857
   2668.00000000          15328           8830         -82936         -49489
   2672.00000000          81646        -100751          62529         -76171
   2676.00000000          14209          59288          59704           5689
   2680.00000000         128279         188841         -72566         -52804
   2684.00000000          47312          -9263        -150468           1814
   2688.00000000         -72361          15146         -85860        -197590
   2692.00000000          20789         -33462        -110813         -88504
   2696.00000000        -118946          52272        -107461          48503
   2700.00000000          37725          20280          71118         -26116
   2704.00000000         109284         -96026         -32437        -132769
   2708.00000000          98512          44481        -157980          93553
   2712.00000000          85979          89332         -67619          32263
   2716.00000000          75013         -32872         -41407          -2734
   2720.00000000         -51898          49557         -34468         -90855
   2724.00000000          26116          -2634          13293          46509
   2728.00000000         -60411          -9260           8305         -72321
   2732.00000000        -164184         -62529        -107967          14844
   2736.00000000         -94257          50057         -48608          11622
   2740.00000000          75972         -31017         -21718         -56582
   2744.00000000         -48950        -125280           6955          -8628
   2748.00000000        -157491         -21436         -99117          47117
   2752.00000000           8415         -66398        -115420          13341
   2756.00000000         112581          39153           3151         -56523
   2760.00000000          14050         -20271         -87072        -122429
   2764.00000000          98556         -85228         -23183        -142327
   2768.00000000           8115        -131638        -150469        -135691
   2772.00000000         -24172         -66618          78393        -145214
   2776.00000000         -96064         -44083          29013         -11405
   2780.00000000         116742         -61800          32554          64125
   2784.00000000          -9584         -85923        -129153         -18654
   2788.00000000         -42067         -97949         -56491         -23476
   2792.00000000          28206          23047         -38990          72567
   2796.00000000          12408          53866         -30340         -34158
   2800.00000000         -32442           8774         -76050         -77254
   2804.00000000        -177280        -139282         -55281          41529
   2808.00000000         -70604         -69274        -103424          47227
   2812.00000000          16655          16087          69460          14532
   2816.00000000          73318        -135328          59539          -3604
   2820.00000000         -19668          86356         -61255          84984
   2824.00000000         -65978          -2718         -40188         -22472
   2828.00000000         -13894          30344         109435         -77688
   2832.00000000          36549         -61586         -19503         -25329
   2836.00000000          44660           2684          21157          28273
   2840.00000000         -34194         -29447          19291         -50505
   2844.00000000         -54913          23603        -145904          20114
   2848.00000000          81905         -31269          70680           1594
   2852.00000000         -58577          31642         113814          52858
   2856.00000000          23323         -77240         -85979          15064
   2860.00000000         -32605        -127012          71222         -51649
   2864.00000000          -5287          13986          76155           8722
   2868.00000000          28638         -52486         -46166          -7330
   2872.00000000         -95310          86467         -87418         -58402
   2876.00000000          37399         -38653          24145         -67891
   2880.00000000          16065          55808          53423        -104094
   2884.00000000          64611         -39677          28421          27168
   2888.00000000           5550          13578         -42793         -49527
   2892.00000000          -7133         -58951         -65995         -24986
   2896.00000000         -89293         -41572          22436           5691
   2900.00000000         -40004          41230        -127102         -40494
   2904.00000000          -5145         -48364         -69309           6891
   2908.00000000          16896           -420         -57565         -57967
   2912.00000000        -129806         -30705          -8981         -19551
   2916.00000000          46982         -39313          32767          -7413
   2920.00000000          68193         -21217          25793          34389
   2924.00000000          22317         -65636          36469          38959
   2928.00000000          19557          15806         -88189          32859
   2932.00000000         -25650         -49285         -25358         -47846
   2936.00000000         -36477           1883         -92152          83014
   2940.00000000         -68786          45839        -105485          79759
   2944.00000000         -17564         -38566         -61833          22629
   2948.00000000           5223         -18770         -86475          25892
   2952.00000000          54614          11241         -64731           2164
   2956.00000000          18830         -71795          20937         -33792
   2960.00000000          90615          11117          66465         -80038
   2964.00000000          34444           2689         -60372         -89316
   2968.00000000         111888         183899         -20635          58927
   2972.00000000          57368         -45139         -99052         -48960
   2976.00000000         -44108         -91355          28819        -137564
   2980.00000000          -9294         -19981        -127655          -2151
   2984.00000000          57714          10788          33241         -40750
   2988.00000000         -14182          15907         -53451          -4228
   2992.00000000         -98730         -27688          49110         -45711
   2996.00000000          -3225        -134131          55052          30889
   3000.00000000         -57287         -51007          43082          41040
   3004.00000000         -30540          38604         -11636          44373
   3008.00000000         -71839          80246         -50937         -37554
   3012.00000000          30557         111401         -82854         -61695
   3016.00000000         136895         -35181          20929          10259
   3020.00000000           5190          66771         -18112         -31792
   3024.00000000         -57807         -28386          14160          15818
   3028.00000000          45158         -50279          40030         -60849
   3032.00000000         -73969          11411          -9235         -52301
   3036.00000000         -85815         -22605          25955         -54470
   3040.00000000          25953         -11518         -10204         -21489
   3044.00000000         -37266          15886         -24836          10725
   3048.00000000        -107923         -42128         -58497          41288
   3052.00000000         -82001         -51239         -23030         -11047
   3056.00000000          59509         -70169         -49131         -38718
   3060.00000000          79859         -37024         116229          -8114
   3064.00000000         -64825         -21410         -42453         -38010
   3068.00000000          40531          41903         -27711         -41176
   3072.00000000         -80712          38142          25151         -41247
   3076.00000000          -2133         -16138          -7276         -51491
   3080.00000000         -32974          -5555          65287          45919
   3084.00000000          81728         -13683         -18774         -51878
   3088.00000000         -13307         -40769         -37484         -13105
   3092.00000000         -12023          16196            -91           -598
   3096.00000000          47695          -8214         -28917         -51835
   3100.00000000           6922         -95781         -19215         -25113
   3104.00000000          33552          49556           5368          22335
   3108.00000000         -98927          -1919         -20225          56355
   3112.00000000          10552          -5420          14751          15840
   3116.00000000          25004          50157         -11913          40216
   3120.00000000          16565         -23468         -10047          -6681
   3124.00000000          26942          39749          -8953          33595
   3128.00000000          -4361         -43311          52467          35097
   3132.00000000        -108973         -23396         -10184          66770
   3136.00000000         -15999         -74151         -16227         -21296
   3140.00000000         -38055         -42082         -96947         -50545
   3144.00000000          21486         -15698          27635          24815
   3148.00000000         -15215           2614         -97895         -39304
   3152.00000000         -13856         -14156         -43817          -1458
   3156.00000000          -6940         -34651         -45381         -43595
   3160.00000000          45826         -59759           4785          26063
   3164.00000000         -18651         -12249          27901          72160
   3168.00000000          -9196         -30884         -38643         -24053
   3172.00000000          21279         -11691         -38154         -23579
   3176.00000000         -12805         -74726         -16261         -20709
   3180.00000000          23271         -42028         -17714         -25936
   3184.00000000         -35934          13071          -3726          -5382
   3188.00000000         -29072          50370         -31341         -38794
   3192.00000000         -25157          43630          15591          -6333
   3196.00000000         -70681          11795          -6399         -48251
   3200.00000000          29997          34943         -10453           7886
   3204.00000000          39906           6579          13539         -48821
   3208.00000000         -60859         -22163          58114          60594
   3212.00000000          -1734         -68253         -13104         -49290
   3216.00000000          -6566          18931          19448         -14302
   3220.00000000         -90570         -74765           1719          -2729
   3224.00000000           5154         -10486           1047        -101575
   3228.00000000         -57004         -31533         -12855         -50430
   3232.00000000           -579         -38968           2038          27070
   3236.00000000          63456          23801          42390          72208
   3240.00000000          -8134          19705         -23532         -37424
   3244.00000000          41561         -38411          52419           -532
   3248.00000000           -502          21751         -92313          12173
   3252.00000000         -42745          64208         -49759           4885
   3256.00000000         -49633          59026          20596         -18974
   3260.00000000          62833           5291          15052          34050
   3264.00000000         -85569         -52944          -9477           2651
   3268.00000000          22736          -9257         -53366         -64400
   3272.00000000         -36194           4959            655          -6178
   3276.00000000         -33727         -25953         -72689         -17488
   3280.00000000           9604         -43725          51935         -36106
   3284.00000000          28651         -20016         -25625         -61038
   3288.00000000          15615           -171          59917           8546
   3292.00000000          45976          72756          37807         -48193
   3296.00000000          16847         -26443          12468          -7408
   3300.00000000          -4189          51155         -16396          -2114
   3304.00000000          24339          65824         -18477         -33149
   3308.00000000         -20203          17246          17209          12941
   3312.00000000         -66944         -56476         -33379          41247
   3316.00000000          39255           6596           9954          53906
   3320.00000000          14674         -27478         -10733          20095
   3324.00000000          -1276          38470         -18090         -29858
   3328.00000000         -69720          13477           9140          21561
   3332.00000000          43185          24835            129            233
   3336.00000000         -56918         -21954          20683         -17941
   3340.00000000          33970           9205           6565         -61050
   3344.00000000          34802         -46060         -47253         -28638
   3348.00000000          40853          32350         -29897          -7741
   3352.00000000          66308          -5246          23032         -32390
   3356.00000000         -11876          22205          23722           -793
   3360.00000000          23405           7663         -49923         -18261
   3364.00000000         -16963          11798          -9482         -11400
   3368.00000000          -2190          -7479          -6260           -411
   3372.00000000          19932          -4745           9234          48620
   3376.00000000         -10254         -16206         -50311           5354
   3380.00000000          23437         -54076             73         -14600
   3384.00000000         -29421          30012         -20847          45068
   3388.00000000         -14685         -41074            843           2148
   3392.00000000          -1248          -9877           3838          19417
   3396.00000000           3703          13660         -26880         -11456
   3400.00000000          29497          15947           6149          19630
   3404.00000000          13880           7803         -97008          -1018
   3408.00000000         -62309          34503          18729         -12096
   3412.00000000          28579         -49465          13527          14068
   3416.00000000           9687          39054         -33698          10560
   3420.00000000         -18108          19656         -16054          10889
   3424.00000000          -8220          10853           1042         -37503
   3428.00000000          36668          12990          10395         -13287
   3432.00000000         -32162          13465          11485          40191
   3436.00000000           4095         -22247         -25689         -10848
   3440.00000000         -29905         -32826          14227          30743
   3444.00000000          47504          11431         -45996         -29785
   3448.00000000          15464         -24442          -4473         -14588
   3452.00000000          27960          -1713          -2085          42284
   3456.00000000          -1027          -2870          13655         -35197
   3460.00000000           9436         -41061         -37292         -68494
   3464.00000000          16963           6116          23441          14383
   3468.00000000         -42438         -46626           1729         -36121
   3472.00000000          28712           6023          -5768          37899
   3476.00000000         -34767          30018           9121           5888
   3480.00000000         -39678         -30016          33835         -23850
   3484.00000000           4264          14300          -8091         -12267
   3488.00000000         -13806         -14672          13994         -24255
   3492.00000000          16155         -25209          41531          62069
   3496.00000000          -1822         -30547          10771          -1463
   3500.00000000          61588          14551         -21718          23438
   3504.00000000          -3333           -685         -44741         -27583
   3508.00000000          37565           8701           2608          -9356
   3512.00000000         -53901           9024          -6732          26777
   3516.00000000          -1080          -2826         -31446           1019
   3520.00000000          21708         -30820          24076          21333
   3524.00000000           5430          -1298         -40495          15261
   3528.00000000          33817          42802         -10561          43261
   3532.00000000          -7951         -25876          17117          12524
   3536.00000000            873           6882          47089           7029
   3540.00000000          27223          22937           7079         -22992
   3544.00000000         -24709         -55099         -35492          -2569
   3548.00000000           1334         -42167          27465          23115
   3552.00000000         -29291         -27341         -37870         -39009
   3556.00000000          27886          42044          -8308          21283
   3560.00000000          42821          12196          -8608          -7787
   3564.00000000         -15420           4594          -4364         -40512
   3568.00000000         -27621         -16176          20229          15091
   3572.00000000           5407          10982         -16264         -22733
   3576.00000000          -6433           2295          33336          -9712
   3580.00000000           2539          16882         -12181          18507
   3584.00000000         -29104            963          35627          21313
   3588.00000000         -22372          12777          18068           8067
   3592.00000000          25720           8986          22372         -20842
   3596.00000000          11438         -19637         -24995         -21844
   3600.00000000          22208          19026          21926          -6314
   3604.00000000         -21581           -184          37196         -27879
   3608.00000000          11300           4469         -24169          11860
   3612.00000000         -24167          38657          49962          29681
   3616.00000000          13909         -43843          -3636           2979
   3620.00000000          -1471          17715           1732           3537
   3624.00000000          18713         -24765          -2027          48508
   3628.00000000          24449         -10482         -24003         -13435
   3632.00000000         -20722          15589           6764          30930
   3636.00000000          -7284          -6136         -45983           -200
   3640.00000000         -12363          12315          30809          20588
   3644.00000000          66703          21177         -45971          -3396
   3648.00000000          15811          33206          26474            739
   3652.00000000           2471          28091          12605          39361
   3656.00000000          38921           2964          15994         -30360
   3660.00000000          -3503          10370          -5231           1644
   3664.00000000           8529           6456          -6471         -29164
   3668.00000000           6411          23570          41942         -14700
   3672.00000000          15192          -2220          60313         -36643
   3676.00000000          18105          14378           2752         -37316
   3680.00000000         -30233          12527         -19423          -1853
   3684.00000000          22458          22043         -29143           2245
   3688.00000000         -25986          37475           6490           4955
   3692.00000000           4368         -16954          34757         -35793
   3696.00000000         -28300          15711         -14837           7209
   3700.00000000           5420          -6193          -6950           8357
   3704.00000000          21666         -21747          -6727         -26363
   3708.00000000           9802          12512         -12129          29237
   3712.00000000          21887         -31645           7778         -13092
   3716.00000000         -29663         -12464          -8157          -3853
   3720.00000000           9439         -11577         -28483         -32000
   3724.00000000          15410           5343          19373           6378
   3728.00000000          -4090         -35931          -4443          39635
   3732.00000000          -4786          12582         -10415         -15106
   3736.00000000          19419          12380           5974           8422
   3740.00000000          30536          28516          -1803           -702
   3744.00000000           9694         -13644          -4457          28034
   3748.00000000          47659         -30258          27555           9995
   3752.00000000           8045          -5689          16337           6382
   3756.00000000         -20051         -18564          -8800         -12306
   3760.00000000          28144          60957          -5289         -31480
   3764.00000000         -27202         -28808          29522         -26788
   3768.00000000          25874          56259          28591         -35030
   3772.00000000         -30460           2372          11296         -13279
   3776.00000000           8631         -22684           1143          -2193
   3780.00000000          21843          42303         -18051          -6167
   3784.00000000          -7295         -35240         -13505          -9393
   3788.00000000           4944         -14402           9378         -13191
   3792.00000000         -38712          15192           9322           5143
   3796.00000000          21153          -8042         -14013          39294
   3800.00000000          21941          -9556          -9296          34179
   3804.00000000          -9971         -27638         -23209         -42550
   3808.00000000          23199          11805          45803           -244
   3812.00000000          34332           -184           8448         -20291
   3816.00000000          -1995           9533          -5408           6824
   3820.00000000          -2616           9176          11557           6679
   3824.00000000          21430           -346         -21579          -4458
   3828.00000000          -3284           8396          -9332           2564
   3832.00000000          -7818          -6853          -3969          -9202
   3836.00000000          18602         -16221           1148          39245
   3840.00000000          26474          -4013          -1394         -12410
   3844.00000000           5354         -22449         -29432           2213
   3848.00000000         -23483         -19758          -8226         -17956
   3852.00000000           9923           6729          16216           -747
   3856.00000000          -1642         -19586           6265          14258
   3860.00000000           8631           9751         -25805           3931
   3864.00000000         -10841          -4769          -3633          -8397
   3868.00000000          -6905          -6213          25568          -6684
   3872.00000000          21691          16736         -13189          -4674
   3876.00000000         -11172         -10174          -9255         -32544
   3880.00000000             58           8633           4180          19852
   3884.00000000         -22660          -6964         -21771         -21223
   3888.00000000           9137         -20883          16442          12844
   3892.00000000          15713         -15505           3017          16901
   3896.00000000          -3194           -376          -5962          -7862
   3900.00000000          -9320          -2336          19979         -16901
   3904.00000000            483          -4514          -2514           1201
   3908.00000000           8976          -8975         -15767          10667
   3912.00000000           2637         -12236          18418          -6413
   3916.00000000          -5845          12812          -2002         -11687
   3920.00000000         -23943          -3472           1819         -13577
   3924.00000000          20664           8579           8937          14758
   3928.00000000          -9160           -777         -10518          -6453
   3932.00000000         -24567         -13657         -21550          -1829
   3936.00000000          -6822          32362          17487          13224
   3940.00000000          -6867          -6866          19295           6687
   3944.00000000          -7523          -3573          -8079           1090
   3948.00000000          -3911           1948          -7827         -11738
   3952.00000000          50215           1974          -1166           6059
   3956.00000000          25701          21898         -16857           5438
   3960.00000000           5213          -7371          20012          -2832
   3964.00000000          -8433          25124          -4251          19021
   3968.00000000         -19606         -33580          36517         -19001
   3972.00000000           4841          21421           1956          26413
   3976.00000000          24889         -26521           3773          18011
   3980.00000000          -5747          10047         -19094           -181
   3984.00000000           7313          -5635           9127         -11470
   3988.00000000          12212         -11196          23381          -1293
   3992.00000000          10280          -4082          -1197           9530
   3996.00000000          21878           5733         -15837         -26490
   4000.00000000          -1758          14078          21357          -5903
   4004.00000000          -8103           4991           6767          12344
   4008.00000000           6530         -16598         -19015          19626
   4012.00000000           1683          -2081           4640          46328
   4016.00000000          23529         -15625           9617         -13619
   4020.00000000           4397             83          -3714          13828
   4024.00000000           -927          26088           7284           8300
   4028.00000000          18281           3353          -2635           9598
   4032.00000000          14525          -4543          11501           -145
   4036.00000000          -2013         -27992          44531          15828
   4040.00000000         -14308           8138            665            835
   4044.00000000          17277           -347         -10110          20542
   4048.00000000           9651          -8628          10052          18603
   4052.00000000           5646          -1774         -18352           2816
   4056.00000000           3416           9034          -1239          -9872
   4060.00000000           5195           2178         -10401          10943
   4064.00000000           5163          25280          16750          16051
   4068.00000000          11647           3272           4744           2555
   4072.00000000          19740           1370          -5037          -9935
   4076.00000000         -15059          -3431           7160          -4757
   4080.00000000           5027          10170           8927          16776
   4084.00000000          -1331         -17987         -15050           6889
   4088.00000000            352             71          22632          -9255
   4092.00000000           4073           7394          -1086         -13593
   4096.00000000         -10885           8881          13905           2825
   4100.00000000         -24738          14640           8713           3103
   4104.00000000          -4859         -12762           5811          12842
   4108.00000000          24887           3462          -1265            970
   4112.00000000          -6255          19439         -16998         -10986
   4116.00000000           2238         -17561           8348           1218
   4120.00000000           1339          -5852         -12368          -8754
   4124.00000000         -14373          -6208           3437         -19095
   4128.00000000           6103           -260           3473          20148
   4132.00000000          11880          -5702         -11718          -5506
   4136.00000000          -8104          26714           6790          -1317
   4140.00000000          10452          -8623          13257          20520
   4144.00000000          18213          -3653           4443          -9895
   4148.00000000          -2650          -5297          -9855          21065
   4152.00000000          16405           6149           8248          20281
   4156.00000000         -19581         -10739           2042          -9202
   4160.00000000          -7544          -5473          -3816          12159
   4164.00000000           8311         -10913          -3185           2565
   4168.00000000          15217         -17213          13016          11999
   4172.00000000          17504         -13516          -2856           2640
   4176.00000000           2527           9199          -2718           2334
   4180.00000000           3612          16084          -1816           7565
   4184.00000000          12556          18531            177          -7329
   4188.00000000          18430           8027          11024          -5322
   4192.00000000          19897           7111          -3251         -10138
   4196.00000000         -14754           3426         -19933            969
   4200.00000000           5357          10062         -10225           2704
   4204.00000000          11455         -12579          -7976          -9553
   4208.00000000           6673           8666           4345           3555
   4212.00000000          -6735           5390           4028          -4268
   4216.00000000           6547          13520          12714          12212
   4220.00000000          -1025          -6840           3115           5736
   4224.00000000          15277           -103         -13491          13228
   4228.00000000           3895          16077           -458          -5258
   4232.00000000           5490          -3737           4234           9126
   4236.00000000           2572          -3543          15203          14901
   4240.00000000         -11599           8144          -6621          13160
   4244.00000000           2775           4886           2909          13818
   4248.00000000            880           2995            724           4273
   4252.00000000          -8959           4417          -1616            262
   4256.00000000           6812         -10965          13465          12051
   4260.00000000           5491         -22294           5082          11613
   4264.00000000          -3232          -4578            770           6991
   4268.00000000           1202          -4034          -3444          -1664
   4272.00000000           -815           1989           6403          10633
   4276.00000000          -3105          -1067           3573           2377
   4280.00000000           -799          -5595           8949           7494
   4284.00000000           -380           2744          -5566          -2007
   4288.00000000          14004            903          10970         -16148
   4292.00000000          -8855          -7925           2016          -3777
   4296.00000000          19263           -302         -11834           1451
   4300.00000000          11122          -4015          33578          12422
   4304.00000000           5638           9265          -2908         -15239
   4308.00000000          -6114          -1405          20411          -4858
   4312.00000000          -8927          15810           4804           5783
   4316.00000000          -3029         -13587          -2610         -13390
   4320.00000000          -3922           9850           8519          11439
   4324.00000000            387           1719            171          -1547
   4328.00000000          12812          -2446          14936           7175
   4332.00000000         -13248           6685          10159           5275
   4336.00000000           5594          -6200          -8362           7620
   4340.00000000           6918          10856          -9182          -7078
   4344.00000000           6893           7812          -4677          -1491
   4348.00000000          -4310          22782          -3866           3525
   4352.00000000           6548           -532           -291           3362
   4356.00000000          -4221          -1292           6002          11856
   4360.00000000          -1524          -3004          -9423          10560
   4364.00000000          -5376            262          12023           5946
   4368.00000000          18210          -6854           6072          -4022
   4372.00000000         -16631          10542            580          -6931
   4376.00000000          -4666           -296          -2922          15067
   4380.00000000           4418           -702          -1805         -26313
   4384.00000000           7186           6337          -4176          27716
   4388.00000000          -4307          10006            506          12560
   4392.00000000           9973          13624          -6319          -1001
   4396.00000000           3847          11645           6342         -14949
   4400.00000000           7267           7395          11200          -1374
   4404.00000000          13460          -3959          -9553           5169
   4408.00000000           8977           2119         -10176           3394
   4412.00000000          -4312          23316           5579          14493
   4416.00000000           2754          -6441          -4025          -6891
   4420.00000000         -14350              4          14305          11338
   4424.00000000           8402           3121            106         -10541
   4428.00000000           6918           1054          -2404           1869
   4432.00000000          -5626           1074           -778           7924
   4436.00000000           9571         -13729           7862          -8184
   4440.00000000          -6125           6679          -7067           8338
   4444.00000000            888           2234          12364            934
   4448.00000000          10111          -4002           2271          -9039
   4452.00000000           9657            222           6341           4023
   4456.00000000          -2572          12552          10680          -3065
   4460.00000000          15206           6572          14284           7901
   4464.00000000          -8352           8997            125          -2845
   4468.00000000           2167          -2603          -1103          -1011
   4472.00000000           2452          -9908           2279           4211
   4476.00000000           3541           9958           3631           5217
   4480.00000000            425           5252          11067           3406
   4484.00000000            989           2094          -5209          -1067
   4488.00000000          -2275           3798           4006          -3560
   4492.00000000          12673          14315            152          -4893
   4496.00000000           2377           8715           3081          14556
   4500.00000000           1904          -3599           -807          -4369
   4504.00000000           9168          -6037            242          -1000
   4508.00000000           5449         -10241           2178           8957
   4512.00000000           1838            128            -18           2140
   4516.00000000             63          -4649           7920           -210
   4520.00000000          10416          -4960           4715           2005
   4524.00000000           3939          -2279          -4848          -4213
   4528.00000000          -1116           2894           4301           4981
   4532.00000000           1939          -2681            942           3499
   4536.00000000            291           -715           5279          10339
   4540.00000000           9418           3803           -333            104
   4544.00000000          -8575           8800           7603           9896
   4548.00000000          -4503          -4044           -329          -9518
   4552.00000000           -779            935           3337          -5746
   4556.00000000           9105           7934          -5240            151
   4560.00000000            456          -1167           8231          -1615
   4564.00000000           9384          -5374            239          -3315
   4568.00000000           4942         -10292           7519           5084
   4572.00000000           -684           4620          11051           1099
   4576.00000000           3485           4654           8222           6563
   4580.00000000          -1475           1134           -426           6169
   4584.00000000           2681          -4073           9120           1626
   4588.00000000          -9301          -2729          -3597           3128
   4592.00000000           8378           9532           -886          -6209
   4596.00000000           2078           4432           9442          -1621
   4600.00000000          -5060          -7034           6199           6969
   4604.00000000           6105            366           1074          -5549
   4608.00000000          -3058          -4383          15470          -3207
   4612.00000000           1265          -1208          -3673           -669
   4616.00000000          -8828          -3172           -649           5569
   4620.00000000          -1660          -3505           8113           3664
   4624.00000000           2957           3356           2987           2866
   4628.00000000          -1991           3709           1103          -1440
   4632.00000000           -961           7344           1601          11358
   4636.00000000            235           6819          -8322          -3273
   4640.00000000          -4238           2658            560           -897
   4644.00000000             -9          -3843          -2500          -7242
   4648.00000000          -1798          -5601          -3858          10404
   4652.00000000          -4143          16180           6051           2201
   4656.00000000          -1797           -410           5070            409
   4660.00000000           2829          -5417          -4428           5302
   4664.00000000          -4413           6981           2998          10444
   4668.00000000          11551           8311           8266           6954
   4672.00000000           2650           2198           3889          -1723
   4676.00000000           6182           2703          -2373           4562
   4680.00000000           -206          -5085            895           4564
   4684.00000000          -6663           -393           5502           2758
   4688.00000000          -4905           8273           4565          -3127
   4692.00000000           8024          -3593          -4245          -1066
   4696.00000000           9510          -3581           2679            687
   4700.00000000          -2813          -4081          -7099           2717
   4704.00000000           6083           1954          -7863          -3371
   4708.00000000          -2015           3490          -7040          -1984
   4712.00000000           7753          -1391           4223           9541
   4716.00000000          11946          -1857           4743          -1676
   4720.00000000          -1218          -8963          -4193         -12616
   4724.00000000          -3869           3772          -2227          -2826
   4728.00000000            162           5367           4941          -3821
   4732.00000000           3384           -399           3346           -545
   4736.00000000           4570           5178          -4718           2200
   4740.00000000          -3510           1629          -4626          -2221
   4744.00000000           7724            561          -7110           5887
   4748.00000000          -7298          -9803           2994           9228
   4752.00000000          -1539            366            145           6519
   4756.00000000          -6741          13113           1770          -2354
   4760.00000000           1514           8088           1038           -111
   4764.00000000           4144          -5517          -7761           2480
   4768.00000000           1066           1703          -6213          -4139
   4772.00000000          -2467          -3983           -653           4845
   4776.00000000            632          -3145           2093          -1687
   4780.00000000           -571          -4889           5724            577
   4784.00000000           -701           3931          -7853          -1025
   4788.00000000          11312           -126           4040          -3501
   4792.00000000            874          -1264          -5213           4628
   4796.00000000           2645            139           4264          -4912
   4800.00000000          -1471           1606           2575          -6742
   4804.00000000          -3053           2472           1455          -6544
   4808.00000000           9077          -6872           7361           2688
   4812.00000000           5737           7867           4882          -2261
   4816.00000000          -4357           2706          -1001           -173
   4820.00000000            582           -100          -1926          -1665
   4824.00000000           2377          -4465           5620           1429
   4828.00000000           -186           4007          -4354          -3538
   4832.00000000           3918          -3428          -3916           2459
   4836.00000000           5881            944          10854             47
   4840.00000000           4029           1723          -2329            521
   4844.00000000          -3149            795           1227           2609
   4848.00000000          11435            101          -1608          -4111
   4852.00000000          10362           8493           -663          -2146
   4856.00000000           4379           -638          10580          -5253
   4860.00000000          -1955           4971           1881           2793
   4864.00000000           4407          -5150           6479           3906
   4868.00000000          -2730           -371          -4585           5228
   4872.00000000           2748          -1411          -2398          -4714
   4876.00000000          -2065          -5188          -1059           1282
   4880.00000000          -2625          -4308           2044           3240
   4884.00000000           2026           -459          -1330           4703
   4888.00000000           -549           3069           3838           -309
   4892.00000000          -2912           -992           1147           3323
   4896.00000000            681           5366           6126           2443
   4900.00000000           1115          -2492           -911           1203
   4904.00000000           2061          -1089          -6329          -2792
   4908.00000000           1566           3834           2814           3363
   4912.00000000           8485           1588           6291           3625
   4916.00000000          -2015           -910           3819          -4926
   4920.00000000          -1508           3293           2502          -1867
   4924.00000000          -3726          -3023           1764           8212
   4928.00000000          -2634           3395          -4262           3357
   4932.00000000           3742          -1658           4228           5985
   4936.00000000           1761            686          -5250           -890
   4940.00000000            333          -1777           2759           2304
   4944.00000000           1986           2660           7415            946
   4948.00000000          -3719           4270           5144          14613
   4952.00000000           3037           6447           1577           1791
   4956.00000000            598           -270           4403            -69
   4960.00000000           3121           1200          -1219           4966
   4964.00000000          -5954          -3262           1608          -3716
   4968.00000000           1958          -3498          -1110           5617
   4972.00000000           -223           2034           5247          -3593
   4976.00000000           3260           2337          -6928           4219
   4980.00000000          -4596            703            908          -2646
   4984.00000000           7711           2148          -2676          -4057
   4988.00000000           3611           2642          -2124           1023
   4992.00000000          -2544           -884           1447           8008
   4996.00000000           -417           2783           3028            425
   5000.00000000           2014           3958            412            184
   5004.00000000            285          -1337           4663           1317
   5008.00000000            548           -803           -655           4279
   5012.00000000           -144             75           2449           6339
   5016.00000000           6671          -1712           6895          -1457
   5020.00000000           1765            873           4140           5650
   5024.00000000          -4851            362           -648           1815
   5028.00000000           -564           1530           1056           4013
   5032.00000000          -1909           -672           2214           -797
   5036.00000000           2705           9498          -3735          -2765
   5040.00000000           4352          -7528           -504          -6094
   5044.00000000           -598            545          -1180           1154
   5048.00000000          -1935          -1468          -2970          -3591
   5052.00000000           -811          -3369           6683           2734
   5056.00000000           5143           -858           -569          -2837
   5060.00000000           2543             64          -1510          -2083
   5064.00000000            271            679            204            894
   5068.00000000          -5468           6188           -863            -66
   5072.00000000           -179            858          -2870          -1207
   5076.00000000           2003           6831           4727           5340
   5080.00000000           -437            781            459           -418
   5084.00000000           5625           2517           2650          -5966
   5088.00000000           1301          -4287           3240           4149
   5092.00000000            490            936           5108           3662
   5096.00000000           6928           -633            976           1027
   5100.00000000           7750          -2849           2183          -4541
   5104.00000000           -621          -3146            849           5096
   5108.00000000           3526            338            836           1466
   5112.00000000          -1623           -257          -2188           1425
   5116.00000000           1024           5752           1267          -1487
   5120.00000000           1690           -444          -1173          -1282
   5124.00000000          -2259          -1016           2702           6306
   5128.00000000            261          -2824           1272          -2577
   5132.00000000            238           3412           -175           1285
   5136.00000000           1002             53           2559           4359
   5140.00000000           1525          -3403            401          -4991
   5144.00000000           1065           1367           2312           2265
   5148.00000000          -3141          -1103          -3985           1179
   5152.00000000           4536           2027          -1097           5739
   5156.00000000           1336           3788           -165           2910
   5160.00000000           1134           1136           -945           3286
   5164.00000000           -600           -200            -14          -1362
   5168.00000000           1246          -4773          -1500          -1242
   5172.00000000           1250           2064          -1326           1377
   5176.00000000           3304          -1238           -475          -2360
   5180.00000000           2251            259           -960          -1293
   5184.00000000           4624          -3404           -189           1845
   5188.00000000            885            195            335           3092
   5192.00000000           2700            732           -464            320
   5196.00000000           2854          -1226          -3145           -196
   5200.00000000          -1156            499          -3444            297
   5204.00000000           -230            183           6422           2603
   5208.00000000            467          -2459            -11           1217
   5212.00000000           3237           2143           -829            853
   5216.00000000          -3968          -2899           2343           1488
   5220.00000000           2070           -658           -217           -858
   5224.00000000          -4340          -1603            982          -5220
   5228.00000000            221          -2396          -2046           2971
   5232.00000000          -1379           -642            840          -1373
   5236.00000000            390           1373          -1050           2176
   5240.00000000            225            196            280           1944
   5244.00000000            171          -5893            942           -675
   5248.00000000          -1298          -2161           -799            398
   5252.00000000           1723           2841          -5723            649
   5256.00000000           1622           2367            321           1163
   5260.00000000            341            702           3088           2116
   5264.00000000            640          -4099            647            992
   5268.00000000           3181            127           -985          -2085
   5272.00000000          -1887           1479          -1706          -2865
   5276.00000000           1169           -562           1548           1700
   5280.00000000          -3400          -3344           1379            390
   5284.00000000          -1020          -3615          -4300          -3032
   5288.00000000          -3949           1229           -141           1837
   5292.00000000            476            119            782          -2724
   5296.00000000           1399           1085           -967           2840
   5300.00000000            464             67           1478            175
   5304.00000000           4289           3954           -230           3874
   5308.00000000          -1059           3154          -2730           1018
   5312.00000000           2986          -1452          -2393            329
   5316.00000000           1368          -2558          -3553           4282
   5320.00000000           1131           -197            822           -797
   5324.00000000            649          -1501           3517           -817
   5328.00000000          -2251            300            645          -1488
   5332.00000000            752           1852           2951           -666
   5336.00000000           -994           1136           6049           1851
   5340.00000000            -69          -1295           2260          -1551
   5344.00000000          -1065           2323            531           1136
   5348.00000000            480          -5421          -2978          -4178
   5352.00000000           -676           -738          -2961           -939
   5356.00000000           2537          -2131            492           1175
   5360.00000000           1866           1676           1266            150
   5364.00000000          -3793           2776            994           2003
   5368.00000000           2199          -3022            423           -229
   5372.00000000          -1408           -888           3889            236
   5376.00000000            845          -4872           -560          -1366
   5380.00000000          -3338          -3286           -866           1888
   5384.00000000           2091          -1303          -2791           -736
   5388.00000000           1566            653           2313           -893
   5392.00000000          -1783           4002           4255           2172
   5396.00000000           1086           3366           2344            883
   5400.00000000           3930          -1354           1826          -1561
   5404.00000000          -1557            247           -914          -2141
   5408.00000000           2133           3152           -219           -936
   5412.00000000           2405           -317           -669          -1865
   5416.00000000           -808            192             92           3280
   5420.00000000           1914            610           1566           -913
   5424.00000000            889          -1321          -2165           1286
   5428.00000000            593           -276            241            -49
   5432.00000000           1074          -1934          -3288           1615
   5436.00000000           -605          -2064          -2714            847
   5440.00000000            515            588            299            246
   5444.00000000            995            -51           1490           -522
   5448.00000000           3317           1068           1671           -928
   5452.00000000           1530           1090          -2378          -1520
   5456.00000000            824           -942           4007          -2103
   5460.00000000            267          -1955           1756            798
   5464.00000000             76          -1167          -3034           1168
   5468.00000000            707            219            230           1546
   5472.00000000           -514            948           -127            339
   5476.00000000          -2142           2272           2321          -3217
   5480.00000000            -38          -3129          -2806            238
   5484.00000000           2920            158           1179          -1846
   5488.00000000           1356           2129           1008           -212
   5492.00000000           3789           2225           1941           1320
   5496.00000000          -2580            841            -22          -1002
   5500.00000000           2433          -2684            797          -1919
   5504.00000000             92           3229           2058          -1657
   5508.00000000           1315           1785            719          -2277
   5512.00000000           -597            654           -907          -1800
   5516.00000000           1316            380          -2222          -1608
   5520.00000000           -984          -3470          -2260           2370
   5524.00000000           3465           1843            155            -24
   5528.00000000           1591           1965            148            458
   5532.00000000          -2701            676          -1038          -1622
   5536.00000000           -784            -81           -915           2091
   5540.00000000          -2180          -3728           2383           1635
   5544.00000000           1261          -1918           -132           -456
   5548.00000000          -2934           -142          -1180            838
   5552.00000000            573          -2371            735           4032
   5556.00000000          -1751          -2212          -2556           -667
   5560.00000000           4448            781           1810            571
   5564.00000000           -304            501          -3868            357
   5568.00000000          -2534           1714            394           -831
   5572.00000000           -593           -957            767           -366
   5576.00000000          -2257          -1598            640           1860
   5580.00000000           -888           1811          -1378          -1268
   5584.00000000          -1247           1948          -2506            -61
   5588.00000000           1571           -103          -1923          -1490
   5592.00000000            540            -87          -5439            -35
   5596.00000000           -322           -391           -756          -3148
   5600.00000000           -914           2482           1297          -2033
   5604.00000000            -60          -1658          -1378           1325
   5608.00000000           3398           -827           -907            612
   5612.00000000           2906          -2605           2270           -111
   5616.00000000          -1055           -650             96           1541
   5620.00000000            516           1170            726           -870
   5624.00000000          -1226           1318          -1295          -1892
   5628.00000000           2106          -1351            127          -1611
   5632.00000000          -2662           -769           1208           1483
   5636.00000000          -1419          -3594           2568           -785
   5640.00000000           -711            -63           -370           -752
   5644.00000000          -1531          -1845          -1576           -123
   5648.00000000          -2419            436          -1982          -3144
   5652.00000000           3386           1932            352           -867
   5656.00000000           -354            578          -1542           -137
   5660.00000000            250            323          -4791            256
   5664.00000000          -1353           -778           -413           -207
   5668.00000000            399           1560            522          -1375
   5672.00000000          -1172            143           1453          -2036
   5676.00000000            171             10           -697            708
   5680.00000000          -1695          -1897           1560           1403
   5684.00000000            427          -1611          -1555           -769
   5688.00000000            615          -1890          -1075           1779
   5692.00000000            476           -665           -773           -202
   5696.00000000          -1823           1602           1287           -850
   5700.00000000            828          -1557          -1834            861
   5704.00000000           1383            572          -1852          -1658
   5708.00000000            373            263           -550          -1069
   5712.00000000           -391            136           -440           -823
   5716.00000000          -1619            314            855            233
   5720.00000000           1024            437          -1638           2385
   5724.00000000            400           2355           2100           -526
   5728.00000000           -718          -1480           -520          -1314
   5732.00000000           -688            448           1549           -940
   5736.00000000           -476          -1015            714           -223
   5740.00000000           -808           -105           3918           2173
   5744.00000000          -2193           -279          -2083          -2442
   5748.00000000          -1081          -1087          -1072           -798
   5752.00000000            247          -1275            686            784
   5756.00000000          -1109          -1907             83          -1739
   5760.00000000            187            997           -664          -1671
   5764.00000000            -95           -394           -750            209
   5768.00000000          -4689           -127           1202           2302
   5772.00000000           -437            992          -1025           -357
   5776.00000000          -4271          -1646          -3169            543
   5780.00000000          -2143          -2024            164           -381
   5784.00000000          -1017          -1647            -74           1139
   5788.00000000           1744           -905            410           1001
   5792.00000000           2390          -1040           3080            381
   5796.00000000            734          -1770            756           1869
   5800.00000000          -1609            -50          -1360           -176
   5804.00000000           1011             63           -673           -396
   5808.00000000           1394           2326          -1113             44
   5812.00000000           1019          -3268           -749          -1187
   5816.00000000            685           2034           1769           -120
   5820.00000000           -995           -296           1161            614
   5824.00000000          -1186           2005           -213            -75
   5828.00000000            101           -793            642           -981
   5832.00000000           -703            684           1671          -1062
   5836.00000000            618            161           -477           1087
   5840.00000000           1625           1264           1081          -2420
   5844.00000000            806           1462          -1238           -318
   5848.00000000           -552           -179            752            120
   5852.00000000          -2342          -1953          -2001           -404
   5856.00000000            784           -145            825           -357
   5860.00000000          -1094            794             65           -680
   5864.00000000          -2464            715           1842           -987
   5868.00000000           -649            387            971          -1036
   5872.00000000           -138           1501           1330           1409
   5876.00000000          -1382             10            599          -1523
   5880.00000000           1265           -282             35          -1865
   5884.00000000            264           1307           -454          -1304
   5888.00000000          -1380           2265           1060            770
   5892.00000000           -540          -2390             81          -2515
   5896.00000000           2549           -841              9            185
   5900.00000000          -1575           -370           -663           -450
   5904.00000000            350           -627           -732           -432
   5908.00000000            -32           1121           -393            197
   5912.00000000          -1004           1207          -1421            306
   5916.00000000           -939            407          -1129          -2233
   5920.00000000            972            517             64           -925
   5924.00000000           -357           -203            -36           -304
   5928.00000000            294            870           -385           -619
   5932.00000000            601           -191           -570            410
   5936.00000000          -1201           1058             73           -150
   5940.00000000            608           -277          -1497            575
   5944.00000000          -1830          -1411           1729           -283
   5948.00000000           -221           1299            321          -1083
   5952.00000000          -1175          -1809            872            518
   5956.00000000           -534           -188          -1760            415
   5960.00000000            470           1468          -1707           -735
   5964.00000000            335           1547            -89           -356
   5968.00000000           2070           -139           1136           -700
   5972.00000000            -27           -907           -549           -582
   5976.00000000            166            225            517            374
   5980.00000000            272           -440           -666           -254
   5984.00000000          -1113          -1172           -830            896
   5988.00000000            582            221          -1030           1516
   5992.00000000           -558            242           1944          -1194
   5996.00000000          -1282           -576           1242             69
   6000.00000000           -855           -799           -841           -233
   6004.00000000            483             12            800            581
   6008.00000000            416           1335            628            822
   6012.00000000            538             77             11           1331
   6016.00000000            435            549           -172           -246
   6020.00000000           -426            -25            868            803
   6024.00000000             -1          -1036            981          -1054
   6028.00000000           -410           -914             -4           -475
   6032.00000000          -1171            532           -621           -146
   6036.00000000           1443            797          -1068           1707
   6040.00000000           -737           -566           1365           -662
   6044.00000000          -1312            699            872          -1888
   6048.00000000           -505           -331            649            681
   6052.00000000           -377            928           -903           1161
   6056.00000000           -203           -252           -453           1514
   6060.00000000           -939            313            -49           -488
   6064.00000000           -363          -1615           1730           -603
   6068.00000000            132             92            744           -337
   6072.00000000            771           -616           -452           -918
   6076.00000000           -564           -812           1632           -761
   6080.00000000          -1062            807            140           -734
   6084.00000000           -262            121            104            -48
   6088.00000000            984           -440            957            443
   6092.00000000          -1057             14            935             26
   6096.00000000             91          -1112            209            355
   6100.00000000            617           -626           -960             41
   6104.00000000           -699           -208           -667           -642
   6108.00000000            537           -131            461            715
   6112.00000000           -449            261            -63            296
   6116.00000000            366           1336           -147           -177
   6120.00000000           -940            312          -1133             69
   6124.00000000           -599            455            204            151
   6128.00000000             71            357           -325          -1002
   6132.00000000           -161           -529           -743          -1278
   6136.00000000           -181           -354            735            639
   6140.00000000            145           -917            748           2275
   6144.00000000           -253           -378            146           -363
   6148.00000000           1338           1143            782            849
   6152.00000000            288            -11           -419            368
   6156.00000000            589           -582           -319            504
   6160.00000000            -13            274           1391           -269
   6164.00000000            138           -297            384            471
   6168.00000000            116          -1571           -939           -243
   6172.00000000            166           -205           -401           -157
   6176.00000000            604           -699           -227           -221
   6180.00000000          -1264            665          -1060           -375
   6184.00000000           -315            -41           -576            260
   6188.00000000            110            -54            689           -180
   6192.00000000          -1292          -1494           -565            375
   6196.00000000           -328           1431           -145           -516
   6200.00000000           -295            836            396            222
   6204.00000000           -757           -621            601          -1214
   6208.00000000           -547          -1131           -532           -592
   6212.00000000            678           -999             76           -382
   6216.00000000            346           -291           -146           -256
   6220.00000000           -248           -681           -240           -246
   6224.00000000           -785            -34           -373             24
   6228.00000000            454           -506            836           1012
   6232.00000000            464           -598            532           -177
   6236.00000000            842           1381          -1412           -626
   6240.00000000          -1006          -1109             45           -559
   6244.00000000          -1108           -494            765           -404
   6248.00000000           -830           -195            507           -431
   6252.00000000           -192            178            692          -1290
   6256.00000000           -229            -53           -807            376
   6260.00000000           -244           -815           -646           -450
   6264.00000000            181            350           1662            346
   6268.00000000           1441           -100            971           -888
   6272.00000000            128           -355          -1070             31
   6276.00000000           -520            106            738          -1097
   6280.00000000           -308           -446            118           1215
   6284.00000000            -60           -777            226           -816
   6288.00000000           -480            246           -288             60
   6292.00000000             -7            452           -903            304
   6296.00000000            640           -530           1329             40
   6300.00000000            -46            176             89            358
   6304.00000000            683            165             77           -305
   6308.00000000           1093            908          -1037           -434
   6312.00000000           -682            523            158           -199
   6316.00000000             63            186            -14             89
   6320.00000000           -943            839            675           -640
   6324.00000000           -471          -1260            773            215
   6328.00000000            -78           -785           -471            -76
   6332.00000000           -431           -209           -976            451
   6336.00000000           -641           -655           -700            -81
   6340.00000000           -349           1151            786            567
   6344.00000000           -219           -335           -415           -328
   6348.00000000           -621           -370            928            207
   6352.00000000           -295           -908           -475           -473
   6356.00000000             72            979            594            -48
   6360.00000000           -332            943            263            -35
   6364.00000000           -789            301           -386          -1370
   6368.00000000            -85           -774           -164           -216
   6372.00000000           -276           -684           -298           -570
   6376.00000000           -648           -517           -516           -471
   6380.00000000           -513            479           -188           -173
   6384.00000000           -308            875           -271           -134
   6388.00000000           -143           -457            -54           -487
   6392.00000000           1121           -859            239            198
   6396.00000000           -501           -725           -348           -799
   6400.00000000            544           -461            199           -161
   6404.00000000            659            113            325            157
   6408.00000000           -192           -477           -160            707
   6412.00000000            583            766           -286            -55
   6416.00000000           -801            468            -60           -866
   6420.00000000           -312           -548           -857             91
   6424.00000000           -236            491             37           -594
   6428.00000000            463           -162           -366            -32
   6432.00000000            326            219           -401            851
   6436.00000000            195             32             53           -259
   6440.00000000            545            521           -373            520
   6444.00000000            297            195            771           -267
   6448.00000000            358           -534           -104           -679
   6452.00000000           -235             46            -16            937
   6456.00000000           -145           -208            231            263
   6460.00000000             24           -687           -148            525
   6464.00000000            -56            126           -254              2
   6468.00000000           -474           -189             24            -72
   6472.00000000           -513             89           -824           -405
   6476.00000000            239             89           -103            654
   6480.00000000            358            -73            260           -143
   6484.00000000           -185           -229           -935           -182
   6488.00000000            745           -780           -368            -71
   6492.00000000            832           -596            935            140
   6496.00000000            105            -61            729           -882
   6500.00000000            492           -523           -783            260
   6504.00000000            533           -191           -237           -465
   6508.00000000           -214            327            136            -88
   6512.00000000             22            300             96           -493
   6516.00000000           -536            -62           -484             71
   6520.00000000            627           -218            154            395
   6524.00000000            -80           -205           -455           -503
   6528.00000000            322           -975            707           -437
   6532.00000000             69            437           -170           -151
   6536.00000000            179           -397           -139           -874
   6540.00000000           -187            217           -227           -167
   6544.00000000            -15          -1040           -733             17
   6548.00000000           -238           -328            290            271
   6552.00000000              8            619           -144           -702
   6556.00000000            116             97             70           -162
   6560.00000000          -1189          -1115           -499           -857
   6564.00000000            165           -139            409            266
   6568.00000000           -253            141            485           -640
   6572.00000000           -203           -196           -304           -377
   6576.00000000            142             23           -342            444
   6580.00000000            337            190             88             84
   6584.00000000            453           -270           -490           -415
   6588.00000000            -76            448            261            131
   6592.00000000           -256            252           -166            349
   6596.00000000            -54           -534           -604            792
   6600.00000000            -45            104           -243           -741
   6604.00000000           -116             37           -479            172
   6608.00000000            335           -101           -174           -316
   6612.00000000           -472           -353            -88            133
   6616.00000000            160            432           -484            728
   6620.00000000           -498            654           -295            542
   6624.00000000           -329            405           -160            902
   6628.00000000           -189            -96            583            -29
   6632.00000000           -350           -538            -26            384
   6636.00000000             71             27            -48            484
   6640.00000000           -701            -69           -118            354
   6644.00000000           -145            487           -113            279
   6648.00000000           -428            431           -972            586
   6652.00000000            301            595           -145            297
   6656.00000000            399           -550           -543            479
   6660.00000000            184            174           -319           -748
   6664.00000000             55           -133           -704            508
   6668.00000000           -183             52            -61           -301
   6672.00000000           -215            213            237            692
   6676.00000000           -267            322            528             44
   6680.00000000           -412            -83            364           -151
   6684.00000000           -416           -666            110            208
   6688.00000000           -295           -115           -342            384
   6692.00000000              9           -333            196            125
   6696.00000000            260           -280           -242           -421
   6700.00000000           -267           -689           -569           -316
   6704.00000000             60            510           -503           -397
   6708.00000000            128             74            172            309
   6712.00000000            648            -21            399            -78
   6716.00000000           -454           -616            100            143
   6720.00000000            -38           -114           -428           -140
   6724.00000000           -273            -79            729            -50
   6728.00000000            358           -658            183           -277
   6732.00000000           -502           -259           -681            147
   6736.00000000            184            -17           -136            404
   6740.00000000             60           -127           -231           -340
   6744.00000000           -454            345           -451              2
   6748.00000000            448            356           -438             67
   6752.00000000            119            355            -24           -606
   6756.00000000            227            606            168            223
   6760.00000000            -38           -343             25            199
   6764.00000000           -254            -20           -154           -143
   6768.00000000           -730            269            242           -546
   6772.00000000           -379            132             -5            370
   6776.00000000           -136            278            -70            330
   6780.00000000           -125            300            -35              1
   6784.00000000            480           -211            -12             45
   6788.00000000           -379            -61            481           -178
   6792.00000000           -375           -300           -541            334
   6796.00000000            156           -745           -143            -95
   6800.00000000           -440           -333           -293            212
   6804.00000000           -175            -83           -535            210
   6808.00000000           -277           -272           -115           -236
   6812.00000000            298           -119             -3            384
   6816.00000000           -446           -300           -326            261
   6820.00000000            176           -534           -121           -287
   6824.00000000           -484           -741            211           -442
   6828.00000000             54            446           -145            513
   6832.00000000            271           -381           -223           -140
   6836.00000000            -69             97           -257           -228
   6840.00000000           -185            587           -194            366
   6844.00000000           -359            411           -133           -269
   6848.00000000           -518           -216            523             35
   6852.00000000           -153           -223             13           -108
   6856.00000000             31           -100            -62             47
   6860.00000000             89             91            -20            292
   6864.00000000            -65             34           -293            468
   6868.00000000            355            190            -23             44
   6872.00000000           -125           -367            373             27
   6876.00000000            303            175            279             18
   6880.00000000           -207           -353           -215            250
   6884.00000000           -286            105           -226             67
   6888.00000000           -165            -24           -358             50
   6892.00000000            243           -309            -61            289
   6896.00000000            -60           -225            764             59
   6900.00000000           -170            177             38            -89
   6904.00000000            250            109            464           -252
   6908.00000000            156            653           -104           -648
   6912.00000000            -61            542              5             83
   6916.00000000            420            305            -28             63
   6920.00000000           -141             12           -448            353
   6924.00000000           -261            181           -250            420
   6928.00000000           -278           -306           -109           -126
   6932.00000000           -363            201           -341           -530
   6936.00000000           -306           -186             77            329
   6940.00000000            168             42            228            196
   6944.00000000            319             85            197           -130
   6948.00000000             22           -174           -287            512
   6952.00000000             38            511           -281            263
   6956.00000000            310            380           -116             49
   6960.00000000            -60            -40             57            -41
   6964.00000000            394           -384            -83            222
   6968.00000000           -360            395           -130             82
   6972.00000000            -59             89            184            189
   6976.00000000            -47             99             -2              6
   6980.00000000            -93            110            558           -356
   6984.00000000            219            -35             -6           -252
   6988.00000000           -109            129            -74            279
   6992.00000000            251           -208           -120           -101
   6996.00000000             45             63            190            418
   7000.00000000            173           -257             24           -314
   7004.00000000            117           -401            154           -218
   7008.00000000            231            -12           -258             78
   7012.00000000            -31            226            211             65
   7016.00000000           -532            278            547           -393
   7020.00000000            147            496             30            346
   7024.00000000            159              2            239            322
   7028.00000000           -234            231           -489           -504
   7032.00000000              3            -82            179            232
   7036.00000000             26           -423            236           -320
   7040.00000000           -155           -210           -127              3
   7044.00000000            274           -302            535            512
   7048.00000000             98            -43           -235           -433
   7052.00000000           -125           -105             -9            419
   7056.00000000           -232           -115            242            110
   7060.00000000           -333           -234            580            340
   7064.00000000            -31            318           -298             28
   7068.00000000             23            -87            206             46
   7072.00000000           -337            118            102             75
   7076.00000000           -238            -19             30           -309
   7080.00000000           -276           -144            286           -116
   7084.00000000             49            448           -314            118
   7088.00000000              0           -472            -94            -98
   7092.00000000            155            174            -44           -466
   7096.00000000             94            -66            153            -67
   7100.00000000             85             91            224             16
   7104.00000000            153            326           -509           -161
   7108.00000000            247            -21            -26           -282
   7112.00000000           -134            305            236            130
   7116.00000000             62             -3            -42             68
   7120.00000000            107           -306            -65             72
   7124.00000000              0           -169              1            176
   7128.00000000            194           -213            310           -373
   7132.00000000           -367            323           -295           -227
   7136.00000000           -371            140             37            291
   7140.00000000           -126           -115            318            181
   7144.00000000             54           -421            164            331
   7148.00000000             -8              6           -152           -168
   7152.00000000           -109            109            -53           -382
   7156.00000000            157            180            -24            387
   7160.00000000           -143            -58             12           -212
   7164.00000000           -292             48             90            255
   7168.00000000             93            -18            196           -167
   7172.00000000            -91            103            350            -54
   7176.00000000            262             82           -306            101
   7180.00000000           -380             30           -101           -232
   7184.00000000             82            135            155            129
   7188.00000000            103            280           -187             19
   7192.00000000           -251            196              5             41
   7196.00000000            198            102             80           -320
   7200.00000000             -7            454           -192            176
   7204.00000000            235            129            -54             26
   7208.00000000           -370             15            129            -31
   7212.00000000            -11            315            260            157
   7216.00000000            -37             94            226           -316
   7220.00000000             34             10            -39            -40
   7224.00000000            143             23           -133            227
   7228.00000000            304           -188            -92             43
   7232.00000000           -128           -141            -41           -182
   7236.00000000           -108              2             15           -120
   7240.00000000           -173             50            -99           -174
   7244.00000000            -29             41            -10             -0
   7248.00000000             46           -213            -75             72
   7252.00000000             15            107           -209             10
   7256.00000000             16             52            204            -39
   7260.00000000           -401            145            113            -85
   7264.00000000            172            174           -116           -158
   7268.00000000             15             -9            -11            116
   7272.00000000           -129            189           -227            250
   7276.00000000             54             61            269            128
   7280.00000000            316           -207           -116           -101
   7284.00000000           -141            129             11            -31
   7288.00000000           -149            103             90             40
   7292.00000000            -56           -187           -171            113
   7296.00000000            319            137           -326             28
   7300.00000000           -296            -61             -1             25
   7304.00000000            -26            220             75            -15
   7308.00000000            -50             52            -44             -3
   7312.00000000           -115            121            -63            337
   7316.00000000            225            -13             17            147
   7320.00000000            -30           -241           -204            -46
   7324.00000000            445           -260             55            180
   7328.00000000            214            -78            -10             37
   7332.00000000             -7           -341             -8            233
   7336.00000000             23           -122            102            -26
   7340.00000000            297              8              1           -127
   7344.00000000             98           -110            172            205
   7348.00000000            -73            110             10            -94
   7352.00000000             67              1            110            143
   7356.00000000            -58            289            -68           -120
   7360.00000000           -151             13            379           -265
   7364.00000000             57             92           -325           -113
   7368.00000000             70            -30            214             41
   7372.00000000             50           -246            -42           -192
   7376.00000000            -56             15            -80            295
   7380.00000000            278            237            171             94
   7384.00000000            164            150            -72             41
   7388.00000000           -187            -53            -15            104
   7392.00000000            -94            109            218            209
   7396.00000000             90            105            141             96
   7400.00000000             92            121             22             33
   7404.00000000           -213            198            -68            159
   7408.00000000             68             94            -11           -149
   7412.00000000            199             33            -30           -107
   7416.00000000           -128             30            165           -219
   7420.00000000             36             17             37            125
   7424.00000000           -108            -61            -17           -119
   7428.00000000           -138           -123            162             -2
   7432.00000000             64           -106            -28            157
   7436.00000000             50            -26            138            203
   7440.00000000            -47            -15           -241           -165
   7444.00000000            169             95            309            -14
   7448.00000000             77            -18            -36           -126
   7452.00000000            142             45            278             -3
   7456.00000000            -74           -116             68             67
   7460.00000000             28            -30            -61           -110
   7464.00000000            -13           -103           -203            292
   7468.00000000            -80           -143            -17            154
   7472.00000000            272             98            -19            -52
   7476.00000000            179            117            -71            176
   7480.00000000            -35            111            -22            203
   7484.00000000             87            -82            109           -135
   7488.00000000             92            100             12            357
   7492.00000000            193            -57             80             39
   7496.00000000             57           -131             50            142
   7500.00000000            235             14            162           -187
   7504.00000000              9            218            293            131
   7508.00000000            117             -5             15            158
   7512.00000000             70            -21           -139            113
   7516.00000000            -35            205           -114             93
   7520.00000000           -169            -68            168            162
   7524.00000000            119            -62              5            -32
   7528.00000000           -317             83           -125             44
   7532.00000000            148            183            340            -51
   7536.00000000            -13            -83           -138            140
   7540.00000000            118           -115            -83            -37
   7544.00000000            -35            176             -3            172
   7548.00000000            -37            248            101            -82
   7552.00000000           -150             87              3             -3
   7556.00000000           -115            354             56             -2
   7560.00000000             62            130            190              2
   7564.00000000             99            112             -8           -121
   7568.00000000             98           -100            273             -1
   7572.00000000           -171             39             69            -18
   7576.00000000             92             -3             35             32
   7580.00000000            203             96             25           -157
   7584.00000000              7             24            287             51
   7588.00000000            159            161            -78            -43
   7592.00000000            103            241            116            185
   7596.00000000            172            -70            -39            -68
   7600.00000000            191            110             86             58
   7604.00000000             87             12              8            241
   7608.00000000             49            -11            125           -146
   7612.00000000            222             29           -183            110
   7616.00000000            -10            157            -96            104
   7620.00000000           -140            136           -129             82
   7624.00000000            273            104            232            210
   7628.00000000            141           -147             79            131
   7632.00000000             -8             25            -63            108
   7636.00000000            200            164           -160            120
   7640.00000000            -88             -2             19            -33
   7644.00000000             97            124             36             64
   7648.00000000           -130            -41            119             88
   7652.00000000            -60            -98             50             28
   7656.00000000             13             91            -80            -27
   7660.00000000             88            116            -80            -89
   7664.00000000             29            -17           -128            154
   7668.00000000            111            -68             55            132
   7672.00000000            -43            -11            -12           -113
   7676.00000000            255            123             53            150
   7680.00000000            -44            -33            -82            -50
   7684.00000000             37             73             35            -98
   7688.00000000            -26           -136           -130            -46
   7692.00000000            -21             30             38             19
   7696.00000000             -3            121            -20            139
   7700.00000000             60           -169            -37             74
   7704.00000000            189            -55             88            118
   7708.00000000           -204            -58           -169           -130
   7712.00000000           -116             43             35             52
   7716.00000000           -207            109            121             30
   7720.00000000            -25             11             16            -19
   7724.00000000              9           -158            -69            -41
   7728.00000000            -23            -19           -194            -44
   7732.00000000             10             52             15             80
   7736.00000000            -64             54            117            -50
   7740.00000000            124            -55            160             31
   7744.00000000            169            216             48             87
   7748.00000000            126            -69             25             93
   7752.00000000           -154           -103             33             54
   7756.00000000             90             76            -98             73
   7760.00000000             82            -48             42            -99
   7764.00000000              7            101            -29             51
   7768.00000000            -25             25            189              7
   7772.00000000             -8            -33            123             61
   7776.00000000             94            -70            -51            -10
   7780.00000000            -18            -89             -2            146
   7784.00000000            104            -31             73             97
   7788.00000000           -110            114            177            203
   7792.00000000            -99            144             -8             27
   7796.00000000             -2            -22             34             59
   7800.00000000            -46            -24              8             -6
   7804.00000000             56             39            -40             -4
   7808.00000000             41             14            -16             41
   7812.00000000            -11            118              7            -23
   7816.00000000            -85             15            -19             58
   7820.00000000            -67             33             48             51
   7824.00000000            122             70             58             46
   7828.00000000            -71            -68            -81             84
   7832.00000000             95             90            131            122
   7836.00000000             79           -114             85             31
   7840.00000000            -48            -80             -9            152
   7844.00000000            114            -26            -44             -5
   7848.00000000           -145            117            -23              3
   7852.00000000             83             79             -9             68
   7856.00000000            -41            108            -16            106
   7860.00000000            132            -12            -13            -61
   7864.00000000             26            -20            -30            174
   7868.00000000            -13            -26             97             59
   7872.00000000            129            138            -39            -48
   7876.00000000             51            135            -48              6
   7880.00000000             43            188            104             26
   7884.00000000            -70            -87            -47             44
   7888.00000000             38             72             40             70
   7892.00000000              1             25             16             -7
   7896.00000000             92             14             23            124
   7900.00000000            153            118            -18            106
   7904.00000000             27              1             32            129
   7908.00000000              0            -40             -5             59
   7912.00000000             45             60             -3            -52
   7916.00000000            -11            136             86             12
   7920.00000000             55             40            -16            -35
   7924.00000000             67             68            123            140
   7928.00000000            -10            -43            131             85
   7932.00000000            -49           -138            103            -22
   7936.00000000           -125             87            -29             -8
   7940.00000000            146            166            113            -43
   7944.00000000             48             20             80             90
   7948.00000000             72             57            -12             -5
   7952.00000000            -60            -19             19             82
   7956.00000000             22             89             86              5
   7960.00000000            108            -74             75             18
   7964.00000000             99            -11             19             72
   7968.00000000            -52            -11             85            -19
   7972.00000000            -43             90            -31            -26
   7976.00000000            143             76            -16             21
   7980.00000000           -141             40            -64             33
   7984.00000000             61            -99           -111             31
   7988.00000000            -51            -58            114             40
   7992.00000000             27            156             56             22
   7996.00000000             71             51            -45            -63
   8000.00000000            -39            -47            -10             94
   8004.00000000            -35             89            112             48
   8008.00000000             47             15             71            -62
   8012.00000000             53           -129             72            -19
   8016.00000000            -24             69              7            -84
   8020.00000000            -53            -11             47             98
   8024.00000000            -55            118            -45            128
   8028.00000000             59             36             64              5
   8032.00000000            -35             37              6            -12
   8036.00000000              8            -15            -91             81
   8040.00000000            -17             76            -85             73
   8044.00000000             96            -32             26            110
   8048.00000000            -80            150             15            -76
   8052.00000000             76             37             16            -68
   8056.00000000            -35             40              8             71
   8060.00000000            142             30             -7            137
   8064.00000000            -23            -67            -26             31
   8068.00000000             60            -17              6           -152
   8072.00000000             35             68            -19            -59
   8076.00000000             36             52             52             15
   8080.00000000            120            -17             39             20
   8084.00000000             -1             66             92             -5
   8088.00000000             33             23            111             44
   8092.00000000            139             52            -28            -31
   8096.00000000             28            -91             74            -34
   8100.00000000             14             -4            -38            -25
   8104.00000000             58            -21             74             21
   8108.00000000            -38            -38            -18             69
   8112.00000000             10             11             48            112
   8116.00000000             28            -39              9            -66
   8120.00000000             55             -1            -49             11
   8124.00000000             70             56             -1             -5
   8128.00000000             -1             58            -31            145
   8132.00000000             85            -44             53              9
   8136.00000000             41            -32             65             -5
   8140.00000000             71              0             64             46
   8144.00000000             38             57             84             64
   8148.00000000            -24             65             50            -14
   8152.00000000            -24             35             50             65
   8156.00000000             13             11             -9             51
   8160.00000000             32             76             16             48
   8164.00000000             11            -65             30            -42
   8168.00000000            118             58            -40              9
   8172.00000000             74            -17             16             61
   8176.00000000             13             82            -14             27
   8180.00000000             19            -58             44             56
   8184.00000000             22             17            103             17
   8188.00000000             47             18             47             93
##PAGE=N=2
##DATA TABLE= (X++(I..I)), XYDATA
      0.00000000      661710764      607616068      558550798      637675676
      4.00000000      630018658      245970869     -447698355    -1126970786
      8.00000000    -1382033178    -1002593687      -74099739      998750784
     12.00000000     1686564684     1577844315      681438899     -532236188
     16.00000000    -1370896675    -1432479869     -819874506      -12870075
     20.00000000      519550888      624780122      475830194      315174816
     24.00000000      286791674      313295438      205228101     -178528896
     28.00000000     -741715503    -1144731032    -1007727344     -232939820
     32.00000000      829550033     1554152934     1482048333      631235602
     36.00000000     -503437157    -1293179322    -1358068010     -767413848
     40.00000000       69263909      670835946      787834960      503499684
     44.00000000      136039089      -43735150        -699384       52064175
     48.00000000      -97440566     -449575041     -751263593     -696703047
     52.00000000     -183404710      558206599     1099791736     1090729922
     56.00000000      499282772     -365055743    -1011369916    -1091896521
     60.00000000     -600875611      124728148      646799360      711681585
     64.00000000      404516544       26685171     -149898037      -78780086
     68.00000000       55243468       20891930     -231710395     -526648770
     72.00000000     -578718116     -246200269      352994653      859049255
     76.00000000      932007661      473395434     -273276996     -872807472
     80.00000000     -974627346     -546736183      122824926      618747101
     84.00000000      694673443      394752674       -1409271     -220054102
     88.00000000     -176120416      -13210419       53677670      -84717871
     92.00000000     -324664723     -434421509     -241018934      206262390
     96.00000000      649670574      771236696      441205388     -183043131
    100.00000000     -734345104     -877702618     -539226453       61036791
    104.00000000      554907524      671122672      412476537       11249245
    108.00000000     -253668492     -258348550      -86905080       52642027
    112.00000000       10613415     -176962326     -315490831     -223034356
    116.00000000      118675462      507809463      667142615      424796321
    120.00000000     -109124282     -626321140     -799506000     -525742081
    124.00000000       18310001      496102494      644429090      428345787
    128.00000000       37219336     -270420873     -326454581     -171957977
    132.00000000       18292203       71032847      -47652240     -199918724
    136.00000000     -188096860       49144801      378411925      546585124
    140.00000000      383709306      -51741879     -503634913     -686376303
    144.00000000     -484260395      -19660645      434498569      614291372
    148.00000000      446004279       59517456     -282474896     -387052913
    152.00000000     -237227968       -3720956      113727840       45856431
    156.00000000     -103510470     -147135110       -1935673      248617751
    160.00000000      409462480      324658935        3383775     -374769155
    164.00000000     -575874221     -450660438      -52915084      379203718
    168.00000000      581360249      442978869       73246634     -280049389
    172.00000000     -401938148     -270987092      -24521945      131446729
    176.00000000      119760523      -10243686     -104556624      -56365098
    180.00000000      117791109      278797979      271540956       49687670
    184.00000000     -268059157     -468390515     -394767187      -70712987
    188.00000000      309019485      511805007      415044841       95218762
    192.00000000     -236943837     -389395253     -294949685      -58285356
    196.00000000      145894495      191505236       80157648      -61722783
    200.00000000      -96997882       15212174      170283493      213658305
    204.00000000       75404714     -177668190     -369624025     -346575966
    208.00000000      -98020443      234035988      441433447      395769633
    212.00000000      123216248     -199765871     -381454388     -318818715
    216.00000000      -84385337      151157864      236694078      147157879
    220.00000000      -12739506     -101109178      -51312062       74415175
    224.00000000      149925020       81177094     -102240365     -274747742
    228.00000000     -291655053     -112414828      169283463      375436901
    232.00000000      365030868      134700226     -174137936     -367003793
    236.00000000     -335442612     -114741087      136685953      262469696
    240.00000000      208556652       46234730      -92972719     -102610836
    244.00000000       -9215894       89273843       87035088      -33813238
    248.00000000     -185394332     -235926334     -116327426      114719775
    252.00000000      311941786      330116991      141510220     -140971157
    256.00000000     -340825995     -340459290     -148962556      109442334
    260.00000000      269459804      247051812       91377542      -73525908
    264.00000000     -135570328      -76338519       27464844       72961406
    268.00000000       14383528     -101084215     -164611811      -99299295
    272.00000000       72635219      240909003      277117340      137939816
    276.00000000     -104849421     -300161149     -323052950     -158175239
    280.00000000       87764526      257601422      257992364      111733025
    284.00000000      -68574761     -162466322     -125366711      -13957195
    288.00000000       68956606       56285257      -33926336     -111050945
    292.00000000      -94869131       30876429      178689376      234801727
    296.00000000      136378428      -68157757     -249659187     -289390841
    300.00000000     -155207362       69162709      243454234      259742797
    304.00000000      128638894      -61000507     -182386271     -169965881
    308.00000000      -56280547       61832558       96383121       35162744
    312.00000000      -53476254      -83128622      -14885569       98985370
    316.00000000      166161263      115622361      -31365706     -181818320
    320.00000000     -231499270     -135340885       55263021      216197270
    324.00000000      241161838      120091084      -60857732     -189732706
    328.00000000     -184235130      -70055960       62953212      118957435
    332.00000000       77931344      -17187583      -77721692      -54790748
    336.00000000       37135656      111477913      101842022        -186977
    340.00000000     -131154175     -187240072     -119255748       37777526
    344.00000000      186527712      221253557      119686601      -51931586
    348.00000000     -180988661     -190260398      -85467587       54210025
    352.00000000      137224736      116773735       20329907      -66599344
    356.00000000      -83721851      -21652787       61344413       85892277
    360.00000000       26745585      -76904067     -140716291     -104039441
    364.00000000       13936093      139358941      185796873      112326122
    368.00000000      -29206712     -151925840     -174224117      -90947004
    372.00000000       39044297      129731707      126310315       42046062
    376.00000000      -53607151      -87292464      -44687082       31026043
    380.00000000       71621765       35929389      -46393254     -109538805
    384.00000000      -94694981       -3576338      106229157      157314554
    388.00000000      107215338      -14812407     -132717777     -166989107
    392.00000000      -98437896       28761716      128218162      135786767
    396.00000000       60992472      -38001222      -89141451      -65199989
    400.00000000        5785675       56944253       49475567      -11209052
    404.00000000      -75333886      -81677805      -20942290       72240042
    408.00000000      124458807       97430485       -4175763     -109941810
    412.00000000     -152183277      -98417251       16474535      112687628
    416.00000000      133465274       71936600      -24162115      -84817281
    420.00000000      -78879659      -18711643       40827214       57364646
    424.00000000       15918762      -40692326      -61702456      -23991627
    428.00000000       47335751       96175276       82619016        2739741
    432.00000000      -88860438     -132094552      -91700895        7874890
    436.00000000       96934792      123674073       72729272      -18037274
    440.00000000      -85598946      -87175152      -32294506       32597009
    444.00000000       56629415       33745206      -17712551      -47704936
    448.00000000      -27494031       28090007       73324807       71033591
    452.00000000       11663274      -66428212     -107661283      -79783149
    456.00000000         240905       82675212      110739071       68848060
    460.00000000      -12941062      -81134092      -90489463      -42286134
    464.00000000       22495727       58406405       45235563         393733
    468.00000000      -37441131      -36490560        4883182       47545973
    472.00000000       56062133       19469964      -42706607      -81206809
    476.00000000      -63178968       -1355400       67731026       95028353
    480.00000000       61612208       -7449944      -70937007      -81958940
    484.00000000      -44035540       17445872       58542609       49389451
    488.00000000        9565286      -30546483      -41398001      -12387809
    492.00000000       27273839       41963888       21526354      -25246513
    496.00000000      -57265734      -51788922       -4806780       53216839
    500.00000000       78158394       53174078       -7931154      -59386429
    504.00000000      -73474347      -37055491       16286014       52379157
    508.00000000       52180251       16930827      -26037611      -42564141
    512.00000000      -22494102       13765952       35785347       23010439
    516.00000000      -14473216      -47839089      -43072191       -8682010
    520.00000000       39324390       63736545       44877136       -2689607
    524.00000000      -51470907      -65340315      -40675519       11228631
    528.00000000       48428798       52568701       23356531      -21762731
    532.00000000      -38101270      -26751747        4513685       28327420
    536.00000000       22873596       -6930835      -33688361      -37711086
    540.00000000      -12711911       25329488       49701617       40620889
    544.00000000         554825      -40879485      -55110126      -36225815
    548.00000000        6338174       42089647       47842102       22528118
    552.00000000      -11795794      -31166312      -23134542        1999510
    556.00000000       22852730       20113938        1107140      -21975849
    560.00000000      -29286311      -12368571       20974370       41116773
    564.00000000       33078949        1293595      -35252097      -49869495
    568.00000000      -33776683        2528048       35151235       43028058
    572.00000000       21553548       -9995110      -30933177      -28114643
    576.00000000       -5538922       18078139       23872522        5674399
    580.00000000      -14672660      -22986211       -9133283       13862617
    584.00000000       32403264       27977966        2892701      -26239423
    588.00000000      -41568248      -28122903        1504929       29776183
    592.00000000       38494081       20756384       -8449543      -28632991
    596.00000000      -30175678      -10346423       12623573       20378363
    600.00000000       10214424       -8251760      -18598621      -11716017
    604.00000000        8937734       26550608       25992166        9501192
    608.00000000      -17382556      -34777025      -27471234       -1953725
    612.00000000       26216576       35913996       23465535       -3848054
    616.00000000      -23539846      -28119278      -13483565        5225506
    620.00000000       16141051        9326641       -3577040      -13325516
    624.00000000      -10484376        4100007       19777306       20888504
    628.00000000        5393083      -16873964      -28258826      -24130935
    632.00000000       -2609776       21739012       30031224       21615260
    636.00000000         811267      -17693467      -21418365      -10356446
    640.00000000        5074830       15025279       11788580       -3171596
    644.00000000      -13423433      -11280289        2196561       16748925
    648.00000000       17004435        7015754      -14627616      -26583314
    652.00000000      -23809475       -5719984       17432099       30200532
    656.00000000       24640586        3131152      -16830256      -24322451
    660.00000000      -15453334         495015       14647125       13381929
    664.00000000        2499587       -5629904       -8114213         710800
    668.00000000        9423705       14151400        5547859      -10919869
    672.00000000      -20791826      -19772174       -4669213       14562917
    676.00000000       24939007       19282855        2545563      -15006638
    680.00000000      -22322598      -14302277          70491       12977236
    684.00000000       13126553        5811246       -5138732       -8975714
    688.00000000       -2220749        8353240       13017172        6862973
    692.00000000       -5488895      -18389134      -18504026       -6372446
    696.00000000       12120755       22882515       18726486        5284820
    700.00000000      -14088474      -21935722      -16481837       -2835454
    704.00000000        8346202       13638160        7386054       -1493090
    708.00000000       -7222260       -2362481        4268722        8603842
    712.00000000        6457781       -5064178      -12144288      -15276013
    716.00000000       -6742678        8717905       18506060       17869379
    720.00000000        5775951       -9346250      -18278611      -16636427
    724.00000000       -3362674        5985931       11664627        6718313
    728.00000000         187418       -5504068       -4515513        3533839
    732.00000000        8163016        4949687       -2026349      -11470304
    736.00000000      -15486192       -6219741        6260547       18375433
    740.00000000       18928484        6430811       -8669818      -17654867
    744.00000000      -16744970       -5553313        7496535       13037843
    748.00000000       12458719        2526149       -5628331       -6138629
    752.00000000       -1065056        3288664        2809407       -2283087
    756.00000000       -8216862      -10184022       -4180318        4731199
    760.00000000       13604442       15975955        7014999       -6158823
    764.00000000      -16554162      -15886037       -5986987        5900160
    768.00000000       12550084       12024902        4297001       -2772075
    772.00000000       -6377352       -3729731        1346616        3188962
    776.00000000         742831       -5882277       -8573673       -4914192
    780.00000000        3635470       12323783       14026397        7878229
    784.00000000       -6571481      -15311441      -17579411       -7333808
    788.00000000        4187125       12668187       14500573        7054043
    792.00000000       -4139906       -8287417       -6428193       -2674232
    796.00000000        2540925        2146703       -3219429       -6096703
    800.00000000       -3122170        2006457        7999788       11369968
    804.00000000        7057247       -2696139      -12564324      -16392661
    808.00000000      -10059351        2166012       11945661       13172378
    812.00000000        7126740       -1573744       -7461114       -8704018
    816.00000000       -3538094        1488456        3804534        1904921
    820.00000000       -1976129       -2531560        1774190        6752510
    824.00000000        8620760        4858660       -3773573      -12549210
    828.00000000      -12873536       -7325639        3285588       11678902
    832.00000000       14565336        9403241       -2416561       -9001785
    836.00000000      -11852434       -6107546         818152        5834640
    840.00000000        5224607        1451693       -1102961        -701905
    844.00000000        2791588        7234211        2869686       -2099745
    848.00000000       -8372844      -10364425       -7485542        1659989
    852.00000000       11409278       14089815        8557201       -1682598
    856.00000000       -9512838      -11537151       -7651729         782843
    860.00000000        5986916        5948012        2597577         -63835
    864.00000000       -1767094         248341        1319633        3705822
    868.00000000        -394244       -5783454       -7789468       -7630288
    872.00000000         355003        8562312       12458611       10182837
    876.00000000         163099       -8409140      -11642084       -8532632
    880.00000000       -1456478        4451233        9088667        5866508
    884.00000000         512654       -1698412       -2733852       -1796023
    888.00000000         597683        -535606       -3521102       -6322361
    892.00000000       -5917944        1380115        7364519       10573194
    896.00000000        7645507        -224719       -5935984      -12360999
    900.00000000       -9602845       -2413487        5642480        8983237
    904.00000000        7343398        2458332       -2535860       -3629812
    908.00000000       -2722861        -484918       -1103141       -1692041
    912.00000000       -5140575       -5534895         742217        5926258
    916.00000000        8782959        7135418        1447188       -6804718
    920.00000000      -11484720      -10293578       -2798773        7295017
    924.00000000        9830687        9970886        3576780       -1788893
    928.00000000       -6566597       -5271946       -2656437         820046
    932.00000000        -422828       -1084236         222049         998570
    936.00000000        3696076        5662163        5529415         110014
    940.00000000       -6233463       -9824365       -7416028       -2344133
    944.00000000        5636068       10034671        9495028        3515413
    948.00000000       -2526630       -7584443       -7070386       -2144482
    952.00000000        1107258        2389320        2781383        -121876
    956.00000000         400012        2219703        3200635        2112021
    960.00000000        -660137       -5230302       -7843780       -6933851
    964.00000000       -2258048        4498478        9308408        7345352
    968.00000000        3586456       -3001632       -8116033       -8103034
    972.00000000       -4216146         630616        3818573        6384817
    976.00000000        2741408        1230139        -198141        -249104
    980.00000000         698572         867353       -2670591       -4916657
    984.00000000       -5052157       -2675078        4961154        7811454
    988.00000000        8250317        3057520       -3891646       -7757587
    992.00000000       -6823738       -4704416        2327439        4594822
    996.00000000        5337422        2126721        -105649       -2007408
   1000.00000000       -1576628        -520684        -852186       -1030771
   1004.00000000       -2812582       -1724194       -1178406        1597718
   1008.00000000        6532455        5556368        1699081       -3195583
   1012.00000000       -6362034       -7658757       -3313341        2240394
   1016.00000000        5645215        5966121        3569406         248383
   1020.00000000       -3637932       -4084686       -1783548         225298
   1024.00000000         924644        -900799        -751046        -307966
   1028.00000000        1709684        4332610        3985651        1720263
   1032.00000000       -3122994       -5636753       -5194360       -3166421
   1036.00000000         700168        4596329        4664025        2498490
   1040.00000000        -657923       -3953962       -3695789       -1870104
   1044.00000000         150698         732527         689176        -680038
   1048.00000000         187496        1269425        2625288        3629735
   1052.00000000        2567475        -616887       -3889465       -5149698
   1056.00000000       -2987399         817368        5315848        6696756
   1060.00000000        3509779         -33176       -4044259       -4668231
   1064.00000000       -2850538         734915        1183807        1677788
   1068.00000000        1548476         116632         566951        1070589
   1072.00000000        1626373        -418821       -1167153       -2726246
   1076.00000000       -3479168       -1412363         110344        4719244
   1080.00000000        4903836        3194793       -1139014       -3951400
   1084.00000000       -5656284       -2283411       -1711567        1979763
   1088.00000000        2576625        2223852        1138347        -307848
   1092.00000000         483819       -1118579        -848429       -1892435
   1096.00000000       -2885752       -3317386       -1122075        2616031
   1100.00000000        3180569        4530531        2469366       -1066582
   1104.00000000       -3858542       -5220345       -2743370          28480
   1108.00000000        3054034        3767861        3730779         807151
   1112.00000000        -993392       -1930269       -2608879        -988593
   1116.00000000         214383       -1121066        -453245        -165391
   1120.00000000         772016        2375321        3440054        1235776
   1124.00000000       -1906539       -4527087       -4518783       -2679179
   1128.00000000         413492        3113849        4028368        3494057
   1132.00000000        1023258        -933062       -2942110       -2519591
   1136.00000000       -1351638        -904900        -335037        -215358
   1140.00000000         867936        1616598        2197567        2343935
   1144.00000000          27180       -2055221       -3448846       -2881158
   1148.00000000       -1885107        1478920        2785105        4131411
   1152.00000000        2417294         267353       -2142868       -3459364
   1156.00000000       -2983436       -1510541        -484624         937288
   1160.00000000         962277        1554818        1549983        1619694
   1164.00000000         717094         769752       -1801975       -2130636
   1168.00000000       -2363948       -1308940        -259952        2278651
   1172.00000000        3490359        2675108         -53648       -2605023
   1176.00000000       -3461018       -2783434       -1343103        -412094
   1180.00000000         582911        2322549        1681382         579163
   1184.00000000         381150         334945        -832407       -1658329
   1188.00000000       -1404921       -1919923        -822364        1828994
   1192.00000000        1603758        3012452        2256369         246891
   1196.00000000       -2248987       -2201576       -2410833       -1318584
   1200.00000000          31956        1186604         964787        1820795
   1204.00000000         956380         356823        -272769        -216847
   1208.00000000        -555807       -1097373       -1689519         309406
   1212.00000000        -982589        1278477        2780931        1498190
   1216.00000000         486438       -1544051       -2507687       -1508579
   1220.00000000       -1119187        2034152        1354557        1832441
   1224.00000000         997904         140646        -927916        -621868
   1228.00000000        -943506        -296844        -136353         208854
   1232.00000000         186734         650491        1812253        1400162
   1236.00000000        1028887          20474       -1712408       -1860451
   1240.00000000       -1056513        -387911         195271        1772167
   1244.00000000         909191         764490        -594124       -1262551
   1248.00000000       -1076811        -525010         169024         276299
   1252.00000000         667572         786919         113711         579627
   1256.00000000        1144781         362628        -352936       -1034208
   1260.00000000       -1416917        -237597          15089        1912308
   1264.00000000        1554457         208984        -769315        -476650
   1268.00000000        -709347       -1095436        -980037        -116364
   1272.00000000         548883          73141          63077        1033306
   1276.00000000         601294        -137469        -100157        -121867
   1280.00000000       -1052808        -646657       -1302686        -409273
   1284.00000000         458912        2105409         864573         773286
   1288.00000000        -415246       -1631972       -1255874        -861934
   1292.00000000         388821        -528193         212907         -36788
   1296.00000000        -284989         153022          -6746        -174212
   1300.00000000       -1589457       -1230209       -1278547         149332
   1304.00000000         177701         626553        1028355        1304800
   1308.00000000         357143        -568305        -691783        -949264
   1312.00000000        -261686        -176535         538729         -55589
   1316.00000000         601931         279453         381506         100792
   1320.00000000         -29042        -526106       -1195147        -696742
   1324.00000000        -320241         351696        1034380         963453
   1328.00000000         561994        -193603        -886169        -573597
   1332.00000000        -714548        -655075        -423128        -167236
   1336.00000000         270974         300420         535670        -533810
   1340.00000000         389467        -295601        -749270       -1329282
   1344.00000000        -934452         -96300         124106        1015600
   1348.00000000         567209         752397         117016        -996802
   1352.00000000        -998230       -1037652        -516058         185732
   1356.00000000            239          46330         463429         438312
   1360.00000000         -98498        -394960        -981147        -257198
   1364.00000000        -605256        -526480        -442116        -126051
   1368.00000000         388251         304626         209772        -166006
   1372.00000000        -118386        -658433        -604770         -73373
   1376.00000000         390623         249866        -150146         398145
   1380.00000000         174772        -286812         -46700        -877861
   1384.00000000        -888460         -45700         -67663          94013
   1388.00000000         971420         460680         716217         444870
   1392.00000000        -285426         307153        -314249        -552290
   1396.00000000        -194438       -1053463         -59812        -464115
   1400.00000000       -1026092         -40563          29055        -296325
   1404.00000000        -178386         104735        -648137        -749991
   1408.00000000          65913        -566848         857137         689384
   1412.00000000         492382         425618          48111        -153209
   1416.00000000        -603304        -754155        -134318         806049
   1420.00000000         776506          72177         728266         611764
   1424.00000000        -242535        -592858         -67576        -905352
   1428.00000000        -140788         -29614        -204697         493401
   1432.00000000         538036         452839         489962        -907836
   1436.00000000         -10680        -418255          34188        -344789
   1440.00000000          22381          25688         573762        -163070
   1444.00000000          11341        -281105        -458539        -719858
   1448.00000000          99469        -134861          58269         473714
   1452.00000000         768790         944642        -402148        -179595
   1456.00000000        -218109        -558347        -377030         394710
   1460.00000000          87872         213416         576454         200025
   1464.00000000        -255545        -131722        -877272         -52070
   1468.00000000        -396032        -588071           6775         522446
   1472.00000000         349518         567370         206369         316786
   1476.00000000          90735         -15584        -856583        -801375
   1480.00000000        -451657         209735        -124339         710920
   1484.00000000        -232752          -1344         437971        -353646
   1488.00000000          44632        -584000          94327        -354834
   1492.00000000         651634         859744         532597          88234
   1496.00000000          46580        -268474        -729276        -696145
   1500.00000000       -1353212         180828         785594         376471
   1504.00000000         605970         128516        -314839        -249114
   1508.00000000        -832850        -490124        -426202         135412
   1512.00000000         820391         915739        1140382         619829
   1516.00000000         192308        -247637        -289379        -893118
   1520.00000000        -701016         322430         548823         774830
   1524.00000000         800583         364525         383325         233671
   1528.00000000        -477856        -867846         -63365        -409273
   1532.00000000         414575         571918         737476         730250
   1536.00000000         418049        -190940        -690722       -1429565
   1540.00000000        -779780        -522453        -682351         195361
   1544.00000000         217853         631165         239444         153155
   1548.00000000        -195861        -182725        -769774        -571164
   1552.00000000        -203642        -254309         203510         288112
   1556.00000000         560059          -4596         265102        -655594
   1560.00000000       -1008689       -1098348          -9723         -40597
   1564.00000000         278705         343873         160923          -4694
   1568.00000000        -169235        -234879       -1312041        -478277
   1572.00000000        -535664        -242453        -215815         855906
   1576.00000000         663126         392348         781213          83859
   1580.00000000        -329119        -904686        -649301        -670193
   1584.00000000           8219         531786         555302         432541
   1588.00000000         -11437        -345606        -211168       -1145379
   1592.00000000        -241990        -417289        -657137        -310340
   1596.00000000         433114         431335         665573         254710
   1600.00000000        -626169        -564896        -343739        -904824
   1604.00000000          28241         189972         740321          81048
   1608.00000000        -352365         529690        -187701        -470940
   1612.00000000        -264197        -315908        -657421         217666
   1616.00000000        -102593         335435         358460         299770
   1620.00000000         648655          59713        -683868        -830371
   1624.00000000        -466329          22726         -96588         583530
   1628.00000000         813766         343308         181050        -447594
   1632.00000000        -834119        -471300        -756528          48105
   1636.00000000          56422         694566         286053         638279
   1640.00000000         288361         -15144        -388384        -786735
   1644.00000000       -1110033        -114570         159187         332253
   1648.00000000         239116         823363         330861        -263801
   1652.00000000        -247659        -775779         113721         188457
   1656.00000000         176597         -52934         432563          25552
   1660.00000000         344478         279486        -130142        -296660
   1664.00000000        -402463        -872884        -205871          99514
   1668.00000000         265659         156960         654427         -22429
   1672.00000000          39075        -517182        -586012        -746887
   1676.00000000         -23102         203912         323207         460136
   1680.00000000          55293        -386881         268050        -368076
   1684.00000000        -105325        -734350        -381124        -514470
   1688.00000000         239459         707140         486153         439877
   1692.00000000        -293444        -801228        -689085        -182161
   1696.00000000         686179          65196        -235684         -38327
   1700.00000000         186625        -337193         -72343        -428943
   1704.00000000        -125917        -107517        -133910          24231
   1708.00000000        -128438          -6021         741784         427430
   1712.00000000         384568         -82384        -135023        -764635
   1716.00000000        -333609         248146         245546         380043
   1720.00000000         193022         164056        -245596        -495206
   1724.00000000        -115137        -182743         128925         277078
   1728.00000000        -185269         -36351         299445         284595
   1732.00000000         448260        -173501         -74886        -725068
   1736.00000000         -92671        -291842         -34169         340788
   1740.00000000         453717         510077         232962        -346723
   1744.00000000        -567263        -329129        -486673          47138
   1748.00000000         133023         200028         440715         262293
   1752.00000000          87896         -52680        -562711        -268109
   1756.00000000        -511297        -274130        -164799        -194882
   1760.00000000         357353         315926         285459         363183
   1764.00000000         127882        -476309          -4679        -150002
   1768.00000000        -230146        -196078         588771         -45432
   1772.00000000         157001         -68037         377677         177943
   1776.00000000         -56225        -252113         -43800         -48385
   1780.00000000         187032         435269         172868         140939
   1784.00000000         259218        -279500        -403851        -359857
   1788.00000000        -222079        -195229         285851         129177
   1792.00000000         193569         314848         -77263          -5184
   1796.00000000        -255810        -173857        -690391          68156
   1800.00000000        -176782        -114046         352477         298404
   1804.00000000         112950         126930        -372197         -46856
   1808.00000000        -142844         -43146        -236978         276305
   1812.00000000         158782         -35489         -90953         -62029
   1816.00000000          41550            120        -220566        -244052
   1820.00000000        -253438        -269505         205346         519927
   1824.00000000         219557         -30837        -205932        -446263
   1828.00000000        -597126         148763          92703         201673
   1832.00000000         170679         374567        -194468          -4288
   1836.00000000         174684         -43855         120706        -231041
   1840.00000000         121894         107012         -64363          71798
   1844.00000000          64118         188332        -126678         164303
   1848.00000000        -481570        -505747        -614494          81818
   1852.00000000         -80150         363121         -73487         295819
   1856.00000000        -191131        -294239         -68052        -107860
   1860.00000000        -269017        -219546        -294042         322334
   1864.00000000          29604        -153098         182707         -41829
   1868.00000000        -195048         136325        -266506         264974
   1872.00000000        -196648         184516         399032         127748
   1876.00000000         236775         353676         138104        -158353
   1880.00000000        -265045        -131216        -644566          87990
   1884.00000000         286919         128374         293183        -154914
   1888.00000000          91808          82302        -382558        -175696
   1892.00000000          10720         424486         -20394        -275647
   1896.00000000         156902        -122791          64652        -406514
   1900.00000000         151001        -491691         -61502         260836
   1904.00000000        -263428         -58501         117108         337869
   1908.00000000         215721        -197856        -310486        -154017
   1912.00000000        -638099           2025        -207681          78066
   1916.00000000         588185         356432         309117         123839
   1920.00000000          44104        -103074        -349462         -49489
   1924.00000000         -15741         -33539        -217826        -115933
   1928.00000000         255038         331820        -142316         -68396
   1932.00000000        -745313        -585620        -185269        -232252
   1936.00000000         111287        -169483          41078          34943
   1940.00000000         -17598         174199        -110678        -565631
   1944.00000000         -23844         -12853        -178299         298440
   1948.00000000         -11938         286214          60928        -126556
   1952.00000000           7956        -402782        -305236        -373652
   1956.00000000         -69198         210467         230753         661780
   1960.00000000          73223        -308979          15600        -198318
   1964.00000000        -122278         -95478         259295        -224468
   1968.00000000         179880           1140         224614          44015
   1972.00000000          23895         272438         -19507         119640
   1976.00000000        -228434         -71000         143484         -11066
   1980.00000000         392923         -92930        -203666         -54292
   1984.00000000        -106031        -176489         -47016          83503
   1988.00000000        -295340          -1718         -57442         -58737
   1992.00000000          81431          16202        -190815        -419543
   1996.00000000        -409939         477710         110536         105230
   2000.00000000          57411         175728         352624         -65932
   2004.00000000        -335716        -504671        -304101         125682
   2008.00000000         182638          56723         131315         110417
   2012.00000000         169398        -157954         -11089         -38711
   2016.00000000        -324646        -183592          38957        -260323
   2020.00000000         289746        -160238          98227        -102442
   2024.00000000         -82877         182175        -243733        -470404
   2028.00000000         -58947         259330        -364619        -122199
   2032.00000000         155381         -32691        -153676         -33428
   2036.00000000         -89116        -258664        -344916        -175057
   2040.00000000        -143174         180041         360451         147861
   2044.00000000          26863          20547        -214920         -76838
   2048.00000000        -180712         -44646          76770         -28033
   2052.00000000         341977        -402473         158548          99670
   2056.00000000         -81556         -23074        -427300        -138057
   2060.00000000        -413547         -56782         -83802          87708
   2064.00000000         460499          52222         144868          87019
   2068.00000000         -88111        -349322        -345019        -268359
   2072.00000000          61387         -44903         440576         258239
   2076.00000000         -21952        -152855          20986        -158859
   2080.00000000        -266039        -142445         361715         114597
   2084.00000000         185505         199640         133823         -89894
   2088.00000000          59934        -315599        -355921          -6017
   2092.00000000           3889         -92921        -166978         346116
   2096.00000000          70109          13383         335603        -226944
   2100.00000000        -481109        -215874         -47343         116940
   2104.00000000          21985         -36793         -38701        -175000
   2108.00000000        -177279          25577         311035         -58510
   2112.00000000        -143094         205768           1469          82973
   2116.00000000         -47388         -11786         172976         438991
   2120.00000000         130802        -155422        -106899         -24540
   2124.00000000        -318826         269303         -27805         303120
   2128.00000000        -127787         -15603         338758         -49597
   2132.00000000        -328445          77806        -145113         -55472
   2136.00000000          -9745         -37055          99811         280866
   2140.00000000          96129         -93425         227047         163963
   2144.00000000        -303369         131504         -29585         140246
   2148.00000000           2858         -37404         258824        -130305
   2152.00000000        -195769         -80934         -38007           5453
   2156.00000000          -8501         -62753        -220209         -39068
   2160.00000000          54999         -67448         207094        -310608
   2164.00000000         -97052        -111492          -1925         129930
   2168.00000000         -54210          83163          32982          43146
   2172.00000000          -2028          54251         332937         -71804
   2176.00000000         -29445          64108         -57981          57022
   2180.00000000        -107353         121489         -22327          63626
   2184.00000000          39349        -133402          27493        -197023
   2188.00000000          -8518         -97907         -48039          32419
   2192.00000000          28819         -72216          49416          49494
   2196.00000000         163278        -194787         284915         -10856
   2200.00000000        -113782         -92637          60586         147986
   2204.00000000          85262         -97254         -69886          -1555
   2208.00000000         197574         -79839        -117599         -33568
   2212.00000000         211015          69161          14865         -60396
   2216.00000000           3923        -101764         -91484         148943
   2220.00000000        -221370         149249           1702         -72870
   2224.00000000        -179451        -139192        -119531         -45323
   2228.00000000        -186714         -46942          27778        -138205
   2232.00000000         -77160          39532         -17335         -86629
   2236.00000000          33562         -32680         102307         -18789
   2240.00000000         275376         -59404        -214555         -77650
   2244.00000000         109269         -21221          15519        -232081
   2248.00000000          71658         109502          66062         204174
   2252.00000000         265990         -50012        -126720         -71205
   2256.00000000        -133962         213135        -253553         -47359
   2260.00000000        -111935          68924         -20401            463
   2264.00000000         -58077         -13099         -67321        -270092
   2268.00000000           7566         -72760          -2689         -22530
   2272.00000000         126675          93931          60925         119468
   2276.00000000         -72678        -132977          82248          27728
   2280.00000000          97585         -90615          43422          44062
   2284.00000000        -254174          24641          85561         126178
   2288.00000000        -118937         -87648         190355         225352
   2292.00000000            899          82263          24665          77560
   2296.00000000        -290637        -263939        -144512          62846
   2300.00000000         111885         -68884        -202468         130209
   2304.00000000         -39221         -56593        -125378         -63088
   2308.00000000         127449          50168          72902        -247001
   2312.00000000         -57249         154176          27922          -5210
   2316.00000000         152989         156593          59511          48527
   2320.00000000         -36427        -201660         229533         169430
   2324.00000000         119309         -10821         -70993         119656
   2328.00000000         116324         -35367         -58204         -82868
   2332.00000000         -45005         -70288         107385         -23922
   2336.00000000         -72479          32646          88528          24748
   2340.00000000         -95697        -272811           -710         -80425
   2344.00000000          -4573         101281         122371        -168738
   2348.00000000         -90227         -64283         -88745         -76167
   2352.00000000         136125          79912         146145         -30232
   2356.00000000         164214          97921         -11985          58158
   2360.00000000         -78701        -111055         -77695         -60068
   2364.00000000           3800         -42401          58087         -90726
   2368.00000000         -79370          -8002           1088         227432
   2372.00000000        -196312          96106         142730        -105406
   2376.00000000         133094         -84190          49299         241431
   2380.00000000         -59336         124248         160738           5740
   2384.00000000         -22717         203755         140102          42982
   2388.00000000          76089        -101689          42776        -273371
   2392.00000000        -133172          43262         -42616         -75707
   2396.00000000         160058         -40949        -261428         -55121
   2400.00000000         -56341         -74086          -7518          10506
   2404.00000000         265180         -10995        -135965           3309
   2408.00000000        -151053          59098         -24659          84313
   2412.00000000         109402         -81809        -157803         -77237
   2416.00000000          92976          38444          88070          51848
   2420.00000000        -136978        -154836         -27578         141001
   2424.00000000          44566         -62451          54934          36743
   2428.00000000         139156         146319        -213565         -93210
   2432.00000000        -136956         -37823         -97042          17971
   2436.00000000        -205930         107281          69529          50971
   2440.00000000          -8559         -64689          52539         -41020
   2444.00000000         -14645          69257          15595         -44769
   2448.00000000         -78728          32479          -7121        -103483
   2452.00000000         -58251        -132978          26502          33503
   2456.00000000          32981         155212          29683          39468
   2460.00000000            212         170471         -48609          27049
   2464.00000000         -48760         -24196         -85702          64396
   2468.00000000         111664         136133         -69924         105807
   2472.00000000         -25642          23726        -183672          77960
   2476.00000000         -53727          71413         -48170          16485
   2480.00000000          14287          20828        -130510        -101925
   2484.00000000          12217         -93095         -55393         -68708
   2488.00000000         -40308          29960        -103265          39171
   2492.00000000         206571         -80694          98284         -71967
   2496.00000000         -10381        -164427          15266          70773
   2500.00000000        -125267         -59681         -29281         -66968
   2504.00000000        -103971          24780        -223842        -246976
   2508.00000000         -85541         152381          71954         -20834
   2512.00000000         155953         -59756         -97638          25872
   2516.00000000          53218         180480         -39820         117225
   2520.00000000          89261          24304         -55913         -21674
   2524.00000000          86291        -179998         -60093        -153610
   2528.00000000          37643         130351         -40456         -49844
   2532.00000000          73738          -7835         -26971          38796
   2536.00000000          70878          10827          19103         161322
   2540.00000000         -45529          47295         161282          60471
   2544.00000000          93070          67803          61191         -69115
   2548.00000000         -79776        -177597         -14963          52828
   2552.00000000         -42180          83598        -158110         -12382
   2556.00000000        -143442         -91628          34550         -32934
   2560.00000000          48559          80602         -87476         -41822
   2564.00000000          63662         122496           1219          67335
   2568.00000000          23360         -18767          48888          31563
   2572.00000000          60355          15839         -46394         -17490
   2576.00000000        -109226         -30714         -36743          -8066
   2580.00000000         123285         -37700         -56915          64320
   2584.00000000          22203          47301        -182065          52011
   2588.00000000         -47620         -17373        -107545          61504
   2592.00000000        -162142          87001          76530         -24181
   2596.00000000          16349         216043        -100465         111945
   2600.00000000         239763         204758         -93076           5943
   2604.00000000        -277794          49488          62718        -167949
   2608.00000000         -78003        -112677         -50002         -52508
   2612.00000000          82235          55957          43265         -71540
   2616.00000000            393         -20565           2192         -47824
   2620.00000000        -153732         106826         186465          72096
   2624.00000000          95840         -22220          59013         110129
   2628.00000000         -40771         -86891        -132510          77517
   2632.00000000         -35631          34244         -86590           3341
   2636.00000000         -13538         -42920          80180           3700
   2640.00000000          12494           9201        -110955         -26543
   2644.00000000         162630         -77354          30107         -34545
   2648.00000000        -110867          58332          44053         -91968
   2652.00000000         120005         -24805          57736          31203
   2656.00000000          29578          22484         -31986          59566
   2660.00000000         -33987         -38270         -59194        -109158
   2664.00000000          69256          32155          29028          30445
   2668.00000000          20389          -1018        -114484          -7743
   2672.00000000          42105         -82880           6522          82115
   2676.00000000         181258         126707         -51708          55847
   2680.00000000          46026         137676         -77241          83717
   2684.00000000           5103        -105832         -25390         -56862
   2688.00000000        -169619          48550          71786         -32349
   2692.00000000         -49751         -56400          12013          -1083
   2696.00000000        -124289          53106          -6405         -21570
   2700.00000000         -52976          92105          -1991         125386
   2704.00000000          13468          12144          49545          57285
   2708.00000000         -28647          28650         -91530         115358
   2712.00000000        -125369          39916          39967          38890
   2716.00000000         -85272           9819         -39426          50435
   2720.00000000         -59396          33465         102595          72628
   2724.00000000         -66894          42000           9538         -25757
   2728.00000000         112283         -75779        -179192         -94677
   2732.00000000         -54142          57890         -37122           7717
   2736.00000000         114214          -3372          90000        -112113
   2740.00000000         -58050         166130         -41692         126697
   2744.00000000         132305          14567        -128855           1018
   2748.00000000         -26751          86610         -49295          57090
   2752.00000000         -34954         -70432          14288         135875
   2756.00000000         115060         -45544          96701         -57662
   2760.00000000          58474          26520         -68475         114255
   2764.00000000         -58753         -47811         -56001          90383
   2768.00000000         116722         -97832         -60224          63215
   2772.00000000          29177          -7413          42284         -62319
   2776.00000000         -26466         -51110         -41174         -84540
   2780.00000000           3515          17446         144595         -17892
   2784.00000000          55393         -56435         -17561          16132
   2788.00000000         -14108         -71446         -20881          69896
   2792.00000000          19687          64695        -157125          75154
   2796.00000000         -31782          32027         -48972          63481
   2800.00000000        -112481          44163           7901         -84027
   2804.00000000          46087          93183         133149           9272
   2808.00000000          60623            461         -60796          48570
   2812.00000000        -109815           4476          20587         -38507
   2816.00000000          39846           3505         -27540        -100830
   2820.00000000          12573          61859          94567         -52788
   2824.00000000          20666         -33870         -49517         -18537
   2828.00000000          -2234          18093          71517        -132174
   2832.00000000         -11555         -28112         110504         -44994
   2836.00000000          -5785          30047        -122929           -317
   2840.00000000         -27810         -49938          75225          15820
   2844.00000000         -16362          71158          69517         -51450
   2848.00000000          -5629         -43586         -17799          63402
   2852.00000000         -86120          31398          29652         -70318
   2856.00000000         -46909           -410         -69554           2854
   2860.00000000          -3653         -89705          20191         -17454
   2864.00000000         -63828          14907         -33970         117942
   2868.00000000           4564         -48638         -35262          37409
   2872.00000000          -1429          96119           4456          27149
   2876.00000000          18464          16332          37079         -53154
   2880.00000000          90720         -53170         -21125          99098
   2884.00000000          39592          26844         -64836           4758
   2888.00000000          49977           2766          -2147           9070
   2892.00000000         -33992           7211          64209         -64149
   2896.00000000          67896         -38986          -3337          35647
   2900.00000000         -21823          66459         -86195          36253
   2904.00000000          -9064           -696         -11357           7495
   2908.00000000         145339          -3446         177454          86764
   2912.00000000         -78565           6435         -40698          35298
   2916.00000000          -2645          -4800          28272         -21010
   2920.00000000          32879         -26968         -22372         -84372
   2924.00000000          59031         -82804          10261          38118
   2928.00000000         -79554          48015         -86837           7025
   2932.00000000          25045          35699          38729        -106863
   2936.00000000         -27398          31244         -89211          23509
   2940.00000000          64813          83449          26455         -45846
   2944.00000000        -102835           7008          52640          22621
   2948.00000000        -123631           3514          33137          21241
   2952.00000000          27443          23112         -51933          21195
   2956.00000000          -6512         -38246         -29464         -51555
   2960.00000000          31320          18001         185310           5540
   2964.00000000           4306         101619           4259          32651
   2968.00000000          65653            558          11616          52882
   2972.00000000          66581         -28463           8728          56917
   2976.00000000          47204         -95888         -13314         101648
   2980.00000000          -5983          59382          79019         -83189
   2984.00000000          56293          63479         -53223          14599
   2988.00000000         -31154         -49309         -14326          -2164
   2992.00000000          13450          64717          -5445          44526
   2996.00000000          75403          -2072         -39850          62148
   3000.00000000          45255         -68808          20922         -41437
   3004.00000000         -55187          57897           2224          40793
   3008.00000000          43761         -38587          73850           5574
   3012.00000000          73377           8618           5546         -85783
   3016.00000000          27350          61573         -25814         -18170
   3020.00000000            945         -18186          21156         124923
   3024.00000000         145209         -59425          82174          19173
   3028.00000000          17357          59922           2986         -43901
   3032.00000000          62823          96217          -8471          37858
   3036.00000000          -9476          14529          44224         117874
   3040.00000000         -18973          48477          52198          18075
   3044.00000000         -34605         -52990          73445           9535
   3048.00000000          56371          66692          67991          27615
   3052.00000000         -29538          54935          19646          73080
   3056.00000000          40418          15693          36040         102860
   3060.00000000           9139         -48078          60440          16209
   3064.00000000          70985          31954          75242         103754
   3068.00000000          -7175          42137          38430         -55618
   3072.00000000          98099         -74990         -46798          36918
   3076.00000000          -1081          -4459          -7024           1565
   3080.00000000          29322         -10100         128257         -47234
   3084.00000000         -39425           2407         -11035          86514
   3088.00000000            492          41378         -30818          33986
   3092.00000000          20789        -122759            311          36066
   3096.00000000          88571           5681         -16982         -25770
   3100.00000000         -22761          16580          -9855          76655
   3104.00000000          37472         -15126          51784          42567
   3108.00000000          26561         -31073         -34214         -40919
   3112.00000000          19426         -71423          42280          90946
   3116.00000000          39264         -25789          12617          16362
   3120.00000000         106337          39691         -14785          63988
   3124.00000000          45861         131505         -31677          20394
   3128.00000000          80349         106949          46161          23836
   3132.00000000          75321          -3262         -28004          25563
   3136.00000000          33816         -46445          35505          60343
   3140.00000000          30819          41392          33072         -37584
   3144.00000000          84106          -6721         -79303          65039
   3148.00000000          28028          -9561           6156          25972
   3152.00000000          80948         -18192          24020         -22869
   3156.00000000           9149         -29617          59291         -29565
   3160.00000000         -20538          45986         -64037             15
   3164.00000000           9449         -69041         -27991          -4598
   3168.00000000           -815         -13200         -28079          -9697
   3172.00000000           1775           -118          15524           4487
   3176.00000000          58454          68673          14968         -40363
   3180.00000000          52137          29621          83253          -8342
   3184.00000000           6289          64804         -65145         -15021
   3188.00000000          77804          21653           6672         -59303
   3192.00000000          25942          14041         -24424         -35383
   3196.00000000           7950          18188          10021         -10728
   3200.00000000          56814          65181         -34435          59550
   3204.00000000         -27893          65249         -22827         -25341
   3208.00000000         -76939          54628          51136         -31365
   3212.00000000          14450          46474         -91074          35899
   3216.00000000           7707          10287           3885          70088
   3220.00000000          44566          51510         -32089         -30609
   3224.00000000          66929           4661          30404         -36346
   3228.00000000         -53512          47965          30781         106022
   3232.00000000          15656          66115           7629         -60113
   3236.00000000         -10167          41909          90651         -30169
   3240.00000000           2706          41856          28063          84794
   3244.00000000          28975          35506          15660         -41547
   3248.00000000          25434         -55707          11936          17228
   3252.00000000          27747         -52476          16195         -23356
   3256.00000000         -33087           1250          -3377          50497
   3260.00000000          69596          16981         -44531         -30170
   3264.00000000          21842          13832           1875          -7624
   3268.00000000          33645         -15114          19492         -32347
   3272.00000000          31332          19258          26646         -35248
   3276.00000000         -25751          13488          -4180          51574
   3280.00000000         -30757         -13174          44952          31810
   3284.00000000           1015          33661          51488          53519
   3288.00000000          38733          21907         -23023         -16176
   3292.00000000          15088          26408         -19030          68243
   3296.00000000          12496          -3187          19608         -42375
   3300.00000000          32875          73764          25034          13866
   3304.00000000         -33479         -17082          34170          19923
   3308.00000000          95172          59280         -29916         -33458
   3312.00000000          13338          11561          13438          20725
   3316.00000000         -52721          47469          30503          10820
   3320.00000000          -1274         -13114          58303           2148
   3324.00000000          -4873          25551           7581          32166
   3328.00000000          20816          50266          47321           6648
   3332.00000000          -8243          -8278          12727          45579
   3336.00000000          19414           1372         -12237          39804
   3340.00000000           1581           1387          75859          37447
   3344.00000000         -21369         -11332          24553         -16445
   3348.00000000         -15019          21276          23881          16632
   3352.00000000         -30062          11040           2867            665
   3356.00000000          -1411          58700         -34707         -25995
   3360.00000000          -3419         -45179          21388          -1003
   3364.00000000           8876         -18093            954         -14261
   3368.00000000          47716         -30737          22256         -45097
   3372.00000000          37715          67909         -41800           2234
   3376.00000000         -19826          14012          26800         -14902
   3380.00000000           5027           8562         -66728         -32626
   3384.00000000         -17043         -42172           4468          52873
   3388.00000000          -8205          62194         -13186          26599
   3392.00000000         -36877          28504          23733           2445
   3396.00000000           8291          15155         -11232          -6841
   3400.00000000          34401          89302           1150           4470
   3404.00000000         -35681         -42721            480          31933
   3408.00000000          51514          93064         -21733          12146
   3412.00000000          24151          34298          15835          41388
   3416.00000000          54166          54939         -31493          50018
   3420.00000000          -7076          26362          13894          -7185
   3424.00000000          15875          25872         -22303          34163
   3428.00000000         -23483          53511         -10543          19247
   3432.00000000         -23333          -6607          20569          92913
   3436.00000000           7976           4948         -56075          12458
   3440.00000000         -28880           8305           4813         -17243
   3444.00000000          23279          21887          35905         -14415
   3448.00000000          76362          36807          47600          26684
   3452.00000000         -18909          15665         -26112          29677
   3456.00000000          62567          23942          40142          -1946
   3460.00000000          -7041          -1707         -22381          42184
   3464.00000000          46028          79543          35991          12818
   3468.00000000            546          18003          38884          19999
   3472.00000000         -40405          25243          -9057         -14498
   3476.00000000          -8054          22348          30509           -553
   3480.00000000          -3064          -1430         -11138          -6086
   3484.00000000          30678          -1222           -680          12291
   3488.00000000           6780         -22970          34966         -32370
   3492.00000000          14985          21419         -20631           2357
   3496.00000000          22029          -1036          18928          24064
   3500.00000000          12880         -73599         -11295           9631
   3504.00000000         -11702           4679          19424          37318
   3508.00000000          28134          39662         -34482          25112
   3512.00000000          61921         -12447         -23443          23179
   3516.00000000         -18926         -10903          34227          32796
   3520.00000000          35662           7798           1445          12670
   3524.00000000           3899           3939          32693         -11860
   3528.00000000         -23696           2552          11420          14587
   3532.00000000           4366          16955         -12521          32125
   3536.00000000          -8534          -2598          11055          24316
   3540.00000000          29098          53343          22482          34484
   3544.00000000          -5544         -18874            630           9836
   3548.00000000          40134          55576          37876          20880
   3552.00000000          -5198         -21083          28402          34529
   3556.00000000          -9404           9836          -3580          -4697
   3560.00000000         -37262          -9202          39653           1055
   3564.00000000         -24351          13770          -2303         -24402
   3568.00000000         -31631          18352           6673          19429
   3572.00000000          19662         -33213          -4754          27524
   3576.00000000          39824         -10437          14674          -8357
   3580.00000000          15326         -17086          25209          59389
   3584.00000000          22649          -7798          32097         -30443
   3588.00000000          -5375          -1017          51229           8100
   3592.00000000          16574          18787          -9748           6211
   3596.00000000          27481         -11477          -6338          -2056
   3600.00000000            217          16372          22909         -40407
   3604.00000000          39107          27442          -5352          12793
   3608.00000000          -4828          -1452          25028          34507
   3612.00000000          35406          44081           1983         -19616
   3616.00000000          14847         -30647          12739           3509
   3620.00000000         -14578          34197         -18649           8357
   3624.00000000          38045         -10813          16903          19514
   3628.00000000          -3427         -12391           2928         -16202
   3632.00000000          -8804          34753          35528          50792
   3636.00000000           4507         -14936          23196           6465
   3640.00000000           7522          -2364          -2875          -6853
   3644.00000000           8431           9771           -376         -17841
   3648.00000000         -18965           6975          -5702         -21506
   3652.00000000          18673          23741          40122          18937
   3656.00000000         -16825          16065          33788          -9660
   3660.00000000          23103          26957          -8825           4870
   3664.00000000          -2717          29798           5493          40640
   3668.00000000          64819           2642         -23333          25805
   3672.00000000          -6112          25886          -3400          23347
   3676.00000000         -16165          -1190         -12105          37129
   3680.00000000          -3675          -2458          -9280          16200
   3684.00000000          35325         -14145          -6379          30640
   3688.00000000         -15155          26772           1565         -15180
   3692.00000000         -11370         -28216           5213          19759
   3696.00000000          26540           6847          22144           8881
   3700.00000000          -1799          45061           1260          56583
   3704.00000000           1866           8816          13340           6094
   3708.00000000          21907          25613          12608           1125
   3712.00000000          15316         -13740         -10221         -14364
   3716.00000000          29989         -15789          35503           1844
   3720.00000000         -15658           2955          15477           9745
   3724.00000000           8764          24160           3468         -22225
   3728.00000000          14272           5173          29055          31219
   3732.00000000         -29074          59841          18033         -33071
   3736.00000000          18031           8158           8506          18714
   3740.00000000          25307           4610          13297         -19789
   3744.00000000          39105          47977          47351           3773
   3748.00000000          -2792          10569         -20376          20723
   3752.00000000          27413         -18582          31671          -9354
   3756.00000000         -27415         -18915          24014          33673
   3760.00000000         -18965           6017           -358         -31946
   3764.00000000           8695           1775         -19875         -21419
   3768.00000000           6996          -7153          14573         -32709
   3772.00000000           4333          31357          34117          -8293
   3776.00000000           8941         -19647          -1053          -9773
   3780.00000000          32853          17049          11896           3517
   3784.00000000           3123          35576          18252         -10041
   3788.00000000          43856           9413         -14593          13340
   3792.00000000          40872           2695          35374          36186
   3796.00000000          18878           -463          -7137          -1677
   3800.00000000          29440          28543          23853         -13051
   3804.00000000          38070           6665          -3188          15905
   3808.00000000          19612          16945          -2710          -8126
   3812.00000000          34186          35144           -178           9360
   3816.00000000          -9506         -22172          -1991         -42033
   3820.00000000           2345          -9848          -7179          -9609
   3824.00000000          35767          17988         -17595          -7295
   3828.00000000         -48214           1269           1507          32286
   3832.00000000          12863         -10361         -23272         -13633
   3836.00000000          13349          12370          -8209          17932
   3840.00000000          -1010         -11602          21914          25403
   3844.00000000          18364           4905          11565         -23136
   3848.00000000         -20776           7067         -23650          27621
   3852.00000000           5721         -11662         -16025            542
   3856.00000000          13833          -2736          18587          13877
   3860.00000000         -28003           -897         -23289           5843
   3864.00000000          19850          13122          15792          37797
   3868.00000000         -43087         -18778          12511         -12057
   3872.00000000           9335           3519          11541           7338
   3876.00000000          10710         -10341         -15853          -3903
   3880.00000000         -15725          -1536         -20696         -15676
   3884.00000000          24784          34276          10800          17869
   3888.00000000          -9778          20776         -15540          13559
   3892.00000000          23468            800           9036         -16398
   3896.00000000          16127           4707         -25675          20325
   3900.00000000         -20054          31855          -3472         -18877
   3904.00000000          -6665          11192         -12111          28026
   3908.00000000          23664         -18961          -1483         -29195
   3912.00000000          14965         -26744          -8988          -2857
   3916.00000000          14786         -17038          -9302          -9541
   3920.00000000           6787           2663           1217           2472
   3924.00000000           9049           1546          -3045          27286
   3928.00000000          28438          -3133          12385          11049
   3932.00000000         -33577           2065          10036         -11674
   3936.00000000         -12004          33862           3173           2649
   3940.00000000           3842           2020          13171          -4426
   3944.00000000          17556           2678          -8135         -16795
   3948.00000000         -33634          17111           4235         -18640
   3952.00000000           6353         -17229         -11414          14080
   3956.00000000          14168          -7742           9592          -8992
   3960.00000000          31852         -20150           3736          -3127
   3964.00000000          17827           7833           1968          15752
   3968.00000000           3939          12901           9047           3819
   3972.00000000         -14319          14475           7626         -18698
   3976.00000000           6681          -5741           9627           1187
   3980.00000000          27127           7802         -16041            302
   3984.00000000          14611          -5078           3092         -10857
   3988.00000000         -24777          10787          -2583          13256
   3992.00000000          -9466           8853          16712         -15323
   3996.00000000          -2019          -3169          22152          11264
   4000.00000000           9827         -11031          16229          22142
   4004.00000000          12430           6438          25411          16586
   4008.00000000           1680          12588          15777           9116
   4012.00000000          12075          -2775          22497          21047
   4016.00000000            220          17799          10944         -13544
   4020.00000000           -632         -13245          11005             67
   4024.00000000          -1662         -17314           4621            568
   4028.00000000          14830           6711            894          29861
   4032.00000000           3096          10624           5541           7438
   4036.00000000           -494          12298          -1087          17369
   4040.00000000          12072          12331           6488           3074
   4044.00000000          14331          -9585          -8270          11964
   4048.00000000          21464           3439          12613          -8974
   4052.00000000           6117           -563          11866          23240
   4056.00000000          25396         -11492          36169           1284
   4060.00000000          26003           1411          26058         -20880
   4064.00000000          -7166          -1183          11868           -696
   4068.00000000          -3454           2650           4842           8879
   4072.00000000             18         -17788           7417          -3396
   4076.00000000           1402           9595         -11088           9302
   4080.00000000           7196           4705         -18911            104
   4084.00000000          10114         -14717         -20178          -7538
   4088.00000000          -9690           6921          16380            530
   4092.00000000          -7604         -17266         -12085          12375
   4096.00000000         -16049          11807           5075           3091
   4100.00000000           -672         -10506         -17757           -453
   4104.00000000           7817           3746          -5822         -13364
   4108.00000000          13151           8240           6352           9738
   4112.00000000          14603          15084          -6960           -250
   4116.00000000           -741           9255          10280           6982
   4120.00000000         -10254           2062          -9866          21491
   4124.00000000          10550          21288           1539          -8126
   4128.00000000         -10069          16459          10082          -3758
   4132.00000000         -13108          23555          10934           8042
   4136.00000000          -6774           1557           2025          -3973
   4140.00000000          -5181          -2904          -8773          -1439
   4144.00000000          14037           6594           9883          -2521
   4148.00000000          -4012           6262          -7709            196
   4152.00000000         -21008           1115          10330         -11689
   4156.00000000          11954          13333          14643          -5540
   4160.00000000           7604           1156          16771          13211
   4164.00000000           3128           6212           1124           5723
   4168.00000000           5238           2693          24850          20833
   4172.00000000          -3494          -5815          17830          -8893
   4176.00000000          -7484          -4167         -10369          -3441
   4180.00000000          15041          11123           3328           3222
   4184.00000000         -18429           2467         -13351           1804
   4188.00000000          10030          -3674          -4013         -21257
   4192.00000000         -21523           4716          12676          13614
   4196.00000000           4395          -6081         -10688          17639
   4200.00000000          19224           2111           3769          -3856
   4204.00000000          15882           2008           3188          -5695
   4208.00000000          -6729         -12641          12034          10658
   4212.00000000           7106           2919          -6395           1114
   4216.00000000          25699           9516          -1090          -3200
   4220.00000000         -17736           -466          12613          -6234
   4224.00000000           9102          -5112           5379           9496
   4228.00000000           7148          13002           4556          -6168
   4232.00000000           1555          -8167          -8200           5466
   4236.00000000         -15212          12115           6385           2642
   4240.00000000           9664         -12490          11508         -14909
   4244.00000000         -16990          -7603           8778          25168
   4248.00000000          18724          -3435           6188            915
   4252.00000000            273         -15938           6975           4264
   4256.00000000           7262           7627           4691           2573
   4260.00000000           -497         -13699           4047          -3424
   4264.00000000          11174           4047         -10091           3474
   4268.00000000          -3653           5943          -4401          -7799
   4272.00000000           2586           7589           2103            731
   4276.00000000          14427           3225          -6930          15030
   4280.00000000          11711           3905           -442           6468
   4284.00000000          15013         -10727         -24166           8465
   4288.00000000          18385          14525          -7911           5001
   4292.00000000          -3167           7972            110           -692
   4296.00000000          10012           2423          12634           9514
   4300.00000000          15976           9825         -13539          -8879
   4304.00000000          22736          -3297          -8000          18610
   4308.00000000           9438           4456         -12416          -5867
   4312.00000000          -1518         -10007           1126          -5079
   4316.00000000           -381          -2179           8788           9478
   4320.00000000          13471            560           1279          -6700
   4324.00000000           6395           4329            550          -3813
   4328.00000000          -7334          -7576           5784          15884
   4332.00000000          17366          12757           3468          -3131
   4336.00000000           -925          -7605           4219          -5706
   4340.00000000           2641          16245          13244          -4021
   4344.00000000          -6279         -12838           4546           3124
   4348.00000000           4161         -12063          -7824           3757
   4352.00000000         -15723           2204          -5013            234
   4356.00000000           8324           1076          -4964            877
   4360.00000000         -12867          16585            489          10875
   4364.00000000          11997          14105          -9854          -4288
   4368.00000000          10090           5099          -6213          -2981
   4372.00000000           -537           5922          -3882           2298
   4376.00000000           -523           3517          11615           8797
   4380.00000000           2216           -801           4408          22347
   4384.00000000           5938            140           3356          -2479
   4388.00000000          -3527           3771           -238           8059
   4392.00000000          18899          -1254           2643         -11320
   4396.00000000          -9133         -10119          -2138          12967
   4400.00000000          10094           7439          -2801           5474
   4404.00000000          -5798           1785           4816           3334
   4408.00000000           4127           7520          11413           -574
   4412.00000000           9192          -5605          -4827           9927
   4416.00000000          -1084          -8797         -12253            -55
   4420.00000000          -3252           2520         -12682          -6818
   4424.00000000           6275          -7431          -5618         -10322
   4428.00000000           6224         -14654           9620           9102
   4432.00000000            854           5574           9882          -1884
   4436.00000000          -2535          -6115          -6211           7876
   4440.00000000          -2792          10194           9420           2296
   4444.00000000           1327          -2876           4474          -4213
   4448.00000000           6698          -1246          10795           4258
   4452.00000000            449           1700           1688          -2631
   4456.00000000             44           2336         -11158           2800
   4460.00000000          10350          -2513           3472           3757
   4464.00000000          -4961          -5868          -1823           -445
   4468.00000000           7917          -4524           4298         -11373
   4472.00000000          12007           4917           7826           3903
   4476.00000000           1270           9615          -3272          -7110
   4480.00000000           -812         -10927         -11522           9049
   4484.00000000          12333           4740          -7760           -155
   4488.00000000         -12466           3012            851           -548
   4492.00000000          -9180            873           5735          -1973
   4496.00000000           7239          -6750            792           3269
   4500.00000000           1145           1648          -1754          11307
   4504.00000000           9107         -16580          12224          -7269
   4508.00000000          -1790          -3876           7732           6308
   4512.00000000          -2504            310          12933          10622
   4516.00000000          10102           2463           1290         -11911
   4520.00000000          -7213          -2116          -3300          13845
   4524.00000000          -4840          -4400           8031           6596
   4528.00000000          -5891          -2364          10072          -4557
   4532.00000000          -2313          -1341           5123            -67
   4536.00000000           4986          -3200           2183           3531
   4540.00000000          15242          10225          -4243          -3953
   4544.00000000          -8639          -3050          -6983          -1777
   4548.00000000            961           2825           7123           4836
   4552.00000000          -1789           2465          11301          -2099
   4556.00000000           2993          -4878           5030          -7242
   4560.00000000           5308          -3437           1006          -5501
   4564.00000000           1666            892          -7423          -5485
   4568.00000000          -1562          14696          -4035           2058
   4572.00000000           1681          -1997          -5481           1200
   4576.00000000          -6206          -3482         -13660           7183
   4580.00000000          -1063          -1645          12450          -2545
   4584.00000000          -4609          13309           6898           2457
   4588.00000000           1441            333            376          10430
   4592.00000000          -4886          -5278           4081          -1304
   4596.00000000          -6888           2541           3512          -1561
   4600.00000000           7485           6811          -2116          -1102
   4604.00000000          -6861           2539          -2579         -10607
   4608.00000000           5103          -7431           -379           -521
   4612.00000000          -4209           9862          -2852          -5592
   4616.00000000           -534           1080          10953            -69
   4620.00000000          -5365           3391          -7882          -4209
   4624.00000000           5014           1965           6556           8324
   4628.00000000          -6459          -8423          10812           8199
   4632.00000000           2040           2975           2992          10568
   4636.00000000           3059          -2126          -4226            605
   4640.00000000          -7204           1580          -2133          -7250
   4644.00000000          -5746          -4988           3140          -5849
   4648.00000000          -4531          -1998           -752           -851
   4652.00000000          -2380           3484           1870           2478
   4656.00000000           1090          -7198           6123            461
   4660.00000000          -2153           1634           5865           3279
   4664.00000000           1192           7127           3203          17383
   4668.00000000          -9297            220            155          -1551
   4672.00000000           2101           7722          -4600          -1923
   4676.00000000          -5101          -2585          -4751           4545
   4680.00000000          16852           2662           2421          -7039
   4684.00000000           6512           4163           -237           1419
   4688.00000000           2024           4894          -6158           3557
   4692.00000000           2771          -7740          -9457           -362
   4696.00000000           3294           8657           -824          -6385
   4700.00000000          -3837           7698          -5107          -7122
   4704.00000000           3870          -7144           1816          -7528
   4708.00000000           1044           1480           2557          12545
   4712.00000000          -2066           2301           1622          -4460
   4716.00000000          -1416           6190            638          -4905
   4720.00000000          -3745          10289          -4756           1957
   4724.00000000          -4525          -2522           5352           6884
   4728.00000000          -2454            937           8149           2321
   4732.00000000         -15628           3664          -2929           2054
   4736.00000000          17923           7040          -2508           1980
   4740.00000000           3955          -2971            261          -2494
   4744.00000000           3002          -2728           3834          -2266
   4748.00000000           5564           1343           4415           5608
   4752.00000000          -7291          -3696           3069          -3950
   4756.00000000           4441           6047          -4733          -6007
   4760.00000000          -1663          -4638           7051           2897
   4764.00000000           1221          -4995          -4619            -19
   4768.00000000           -129         -11136          -7211         -11456
   4772.00000000          -1937           9560            928           5753
   4776.00000000          -5254          -3196           3578          -1325
   4780.00000000          -2604           -377           9328          -2111
   4784.00000000          11718          -4466          -3499           1716
   4788.00000000          -1911           3086          -1489           4136
   4792.00000000           5984           6477           1847          -2879
   4796.00000000           4287          -8431           2062          -5258
   4800.00000000           2621            535           8360            569
   4804.00000000          -1766         -11476          -8679          -5780
   4808.00000000          -6768          -3850           1476           2090
   4812.00000000           2492          -3026           4989          -6699
   4816.00000000           4144           6844          -1067           8255
   4820.00000000          -7300          -1357          -5483           -974
   4824.00000000          -7375          -3519          -1512           1037
   4828.00000000          -1335           8356           3649           -261
   4832.00000000          -4308            -12          -2260          -1204
   4836.00000000           9105           1285           1172            977
   4840.00000000           1973           4881           8251           8131
   4844.00000000            237           5298           5038            956
   4848.00000000           3424          -5550           4756            381
   4852.00000000          -6536           2961           7613           3007
   4856.00000000           3763           3792          -5642           -525
   4860.00000000          -1781          -4712             70           1970
   4864.00000000          -1792          -3856           3835          -6194
   4868.00000000           -989          -2999           2906           4348
   4872.00000000          -4229           4110           5385          -1796
   4876.00000000          -6002          -1107          -3403          -3061
   4880.00000000           2944           4191          -1004          -2827
   4884.00000000          -3569           3719          -5568          -1507
   4888.00000000           5633            568          -5122          -1449
   4892.00000000          -1091          -3442           1410          -1682
   4896.00000000          -3201           5143           2482           3045
   4900.00000000          -1430          -1153            729          -5392
   4904.00000000          -4260           3131           4865          -1832
   4908.00000000           4049            998          -2566          -3077
   4912.00000000          -4666           -805           7107           -568
   4916.00000000           2160          -3949           -205          -5976
   4920.00000000           8575          -3794           2690           4599
   4924.00000000           1485           5138           4677          -8483
   4928.00000000           1047          -3679          -4743          -1554
   4932.00000000           1648           1686            -52           6906
   4936.00000000           4959           6704          -1141          -4109
   4940.00000000           1592          -3785          -4281            595
   4944.00000000          -5068          -1585            -19          -5577
   4948.00000000          -3812          -1628           1236           1929
   4952.00000000           1236          -2201             78          -2319
   4956.00000000           7152           8458           1749           -290
   4960.00000000           3856           4552           -695           7794
   4964.00000000          -2477           -826           5408            623
   4968.00000000           3136           -110           3881            152
   4972.00000000           1213          -5611           1157          -2565
   4976.00000000           4946            601          -6001           3758
   4980.00000000           2148          -4711           -974           -827
   4984.00000000            294          -1310           2671            731
   4988.00000000           3586           1823          -1503           3881
   4992.00000000           -166          -1579           4240          -2320
   4996.00000000           1165          -2294          -6916           3592
   5000.00000000            765          -3249          -4493          -1936
   5004.00000000           -795           4135           2309           -897
   5008.00000000           6867            377          -1072          -3469
   5012.00000000           7984          -3088          -2270          -4699
   5016.00000000           4401          -2109          -4616          -2021
   5020.00000000          -4447          -4892          -2608          -1226
   5024.00000000          -2469           1513          -1102          -4175
   5028.00000000          -2303          -1009          -2488          -3603
   5032.00000000           -135           -191            784          -2427
   5036.00000000          -2160           -833           -911           -308
   5040.00000000           2218          -2791           1460           -645
   5044.00000000           -431           -112           1140           2488
   5048.00000000           2950          -1199           -902          -3582
   5052.00000000           5673           -339          -4966            580
   5056.00000000           6395           1005            259          -5059
   5060.00000000           1510           1732          -3276          -4148
   5064.00000000           2306           2704          -2400          -7759
   5068.00000000          -3557           1380          -4892          -3063
   5072.00000000           5072           2628          -2486          -7965
   5076.00000000           -504           1244           2746           -164
   5080.00000000          -8125          -1093           1475           2609
   5084.00000000           1888          -3114          -3252            900
   5088.00000000           1441           1961          -2688           -646
   5092.00000000          -1968           1446           1608          -1526
   5096.00000000           3593           -852           -437           1206
   5100.00000000            701          -1334          -1021          -2230
   5104.00000000          -5399          -5028           1940            388
   5108.00000000           1959          -3297          -6097           1225
   5112.00000000            969           4528          -4177          -3134
   5116.00000000           5486           1578           2775           1981
   5120.00000000           3146            914           -666          -3892
   5124.00000000           -366           2183           2384          -3765
   5128.00000000            417          -1687           3470          -6424
   5132.00000000           2408           2106           1429          -4134
   5136.00000000           5668           2460          -4489          -3991
   5140.00000000           -460          -1197          -2626           -371
   5144.00000000            563          -2033           -188           -975
   5148.00000000           2498          -1102            301          -3788
   5152.00000000           1402          -3625           1103          -5073
   5156.00000000            889          -3680            662           2930
   5160.00000000           4360           4624            369           2340
   5164.00000000          -4863           1389          -3030          -2538
   5168.00000000          -1883          -1139          -1445           2229
   5172.00000000           1191          -2134          -3340           2291
   5176.00000000           -867           -344           1756           1516
   5180.00000000          -1778          -1528           2335          -5054
   5184.00000000           1207          -1616            579           1043
   5188.00000000          -3498          -2607           -243            -37
   5192.00000000          -1569            929           2317          -4670
   5196.00000000           1114            578          -5078           6970
   5200.00000000           3201           -674           -769          -2665
   5204.00000000            917           3959           4268          -1894
   5208.00000000            403            562           -516          -1408
   5212.00000000           4923          -1555            569           2609
   5216.00000000          -1787          -2687           -789           -783
   5220.00000000            243           -194          -5285          -3133
   5224.00000000           1678          -4645           2802            -68
   5228.00000000          -1046          -3153            961           3350
   5232.00000000           1698          -4117           1562          -2636
   5236.00000000           -658            941          -1098          -4063
   5240.00000000          -2767          -2202          -1057          -1039
   5244.00000000           2311           1656          -4281          -1422
   5248.00000000            149            -18          -1340           2578
   5252.00000000           -887           -107            174          -1700
   5256.00000000           -403          -1348           1386          -2348
   5260.00000000           -240           5273            770          -2471
   5264.00000000          -1381           -583          -2234            971
   5268.00000000            528          -4499            -29           4404
   5272.00000000           5583          -1802           2184          -3278
   5276.00000000           2490           2442          -3792           1621
   5280.00000000          -1022          -3016          -1775          -1594
   5284.00000000          -5084           2552           3460          -3850
   5288.00000000             88            802           2946          -3319
   5292.00000000            466           -127          -2071           -336
   5296.00000000            164           4170            235          -4714
   5300.00000000          -2442          -1063          -2337           1600
   5304.00000000          -1032          -3009          -2858           4014
   5308.00000000          -2923          -5049           1889          -1052
   5312.00000000            126           3296          -4007           1994
   5316.00000000          -1576            153          -4718           1301
   5320.00000000           -569          -1074           3205          -4715
   5324.00000000            533          -1853            479            894
   5328.00000000           1863          -2143            -76           1177
   5332.00000000           4408           -593           1294          -1593
   5336.00000000             78          -1250          -1628           -751
   5340.00000000          -1306          -2804          -4912          -2853
   5344.00000000           -252           1545          -2008           2034
   5348.00000000           1752          -1912          -1800           1485
   5352.00000000            103          -1668          -2668            650
   5356.00000000          -1378           1847           -211          -2340
   5360.00000000           2053           -377             37          -1333
   5364.00000000           -636          -2012          -3043            909
   5368.00000000          -4102          -1439          -4141          -3309
   5372.00000000           2251          -2776           1434           -843
   5376.00000000          -2693           2095           -392            737
   5380.00000000          -1547          -4219           -502          -1938
   5384.00000000           2694          -1774          -1784          -1511
   5388.00000000          -2307           3313           2143          -3520
   5392.00000000            558           1712             -7          -2038
   5396.00000000            198           3227           2112           -350
   5400.00000000          -1918          -5701           1445           1224
   5404.00000000           2879           1022           -184            280
   5408.00000000          -3201           4690           1363           3160
   5412.00000000           2835           -573           1954          -2174
   5416.00000000            476          -1181           -518            297
   5420.00000000           -246          -2400          -1960           3929
   5424.00000000            831           -394            486            494
   5428.00000000           1490          -1705           1091           2753
   5432.00000000           1318          -1085           1959            335
   5436.00000000          -4297            771          -2663           3002
   5440.00000000          -4783            125           -964          -3408
   5444.00000000            803          -1346          -1142          -2362
   5448.00000000           -668          -3014           2008           2362
   5452.00000000          -2435           1960           -395           -366
   5456.00000000          -1816           1182           2826          -2463
   5460.00000000           -225           1887          -3219           2616
   5464.00000000          -3204          -1745          -2313           3509
   5468.00000000           -585          -4780            590            332
   5472.00000000          -3320           3159          -1552          -1737
   5476.00000000          -1896          -2413          -2394            904
   5480.00000000          -3076          -1229          -2944            438
   5484.00000000           -524          -1114          -2423           -518
   5488.00000000           1502          -2020           2920           -957
   5492.00000000           -585           -882           -459           -444
   5496.00000000           1161           -233            -95           2526
   5500.00000000            -45            305           -252           3249
   5504.00000000          -2780          -4889           2163            244
   5508.00000000          -1141           2480           2874            186
   5512.00000000          -1223          -3172           1161            712
   5516.00000000            603           2732            548          -2846
   5520.00000000           -605          -3784           1459          -1997
   5524.00000000            824           1206          -2819            394
   5528.00000000          -1855            189           2672           -565
   5532.00000000           1793            601          -3243            223
   5536.00000000           1097          -4306           -773          -1121
   5540.00000000            245            430           -731          -2203
   5544.00000000           1712           1832           -877           1111
   5548.00000000           2245           1109           1061          -3000
   5552.00000000            694           -779            462          -1086
   5556.00000000            721          -1943          -1744           -329
   5560.00000000          -3258           -202           -480           -601
   5564.00000000          -1269            152            127          -1917
   5568.00000000           -208            456           -559           2913
   5572.00000000           1200           -400          -1003          -1432
   5576.00000000          -4329           1772           3228          -1100
   5580.00000000           -471           2211           1316           1869
   5584.00000000          -2575            156            342           1874
   5588.00000000          -2149           -836          -1486            103
   5592.00000000            987            992            193           3010
   5596.00000000            728           1709            488             52
   5600.00000000           1294          -3128          -2437            587
   5604.00000000             20           2213            509          -1638
   5608.00000000           -107           1392            127          -3557
   5612.00000000          -1540           -457           -767            918
   5616.00000000            487          -1083           -997            253
   5620.00000000           -456            197          -2989            174
   5624.00000000           -289          -1531           -959            588
   5628.00000000           -662          -1844           1083           2036
   5632.00000000          -1224          -1673           -813           3061
   5636.00000000           -848           2606           -177            308
   5640.00000000          -2367          -1037          -2473             71
   5644.00000000           2220            774          -1320            738
   5648.00000000           2386          -1158          -1124           -689
   5652.00000000           2560            594           -128           2898
   5656.00000000            293           -517          -1357          -3584
   5660.00000000           1509           -497           1967          -1995
   5664.00000000            192           -210           -957          -1855
   5668.00000000          -1546            452          -1922           -520
   5672.00000000           -667           -612            851          -1249
   5676.00000000            401           2655          -2106           -711
   5680.00000000            787           -767           -848            539
   5684.00000000          -1540           -460          -1251          -1296
   5688.00000000          -1534           1069           1024           -151
   5692.00000000            243          -2364          -2113          -2356
   5696.00000000          -1468             18            723           2042
   5700.00000000           -275           -319           -141          -3047
   5704.00000000           1007           -309            705           -650
   5708.00000000           -606            -78            863           1344
   5712.00000000            341            -57            586          -1507
   5716.00000000            774          -1534           1840          -1272
   5720.00000000           1143           -240           -971          -2633
   5724.00000000           -190            893           -963            522
   5728.00000000          -1340           -853           -498          -2302
   5732.00000000           1384           -301           -383            285
   5736.00000000           -763          -1830           1777          -1698
   5740.00000000           1252          -3197           -488           -297
   5744.00000000           1638          -2340           -735           1844
   5748.00000000          -1551           -426           1893           -673
   5752.00000000            772           1608          -2079           -918
   5756.00000000           1102            -23           -992          -1275
   5760.00000000            442            271            237           -288
   5764.00000000           -668          -1478           1300           1260
   5768.00000000          -2363          -1142           -639            -96
   5772.00000000           -194          -2020           1665           -526
   5776.00000000          -2220           2847          -1890           2803
   5780.00000000            235           -294           2470          -2301
   5784.00000000            122           1033           2583          -1377
   5788.00000000            469            783            751          -1215
   5792.00000000           1704          -1199           1123          -1182
   5796.00000000           -667           -564           -604           -802
   5800.00000000          -2148            210            106            115
   5804.00000000           1746           1026            538           -292
   5808.00000000           -841           -435           3124            983
   5812.00000000           -267            934          -2021             77
   5816.00000000            719           1211            975            719
   5820.00000000            604            202            728             99
   5824.00000000            -32           1782             90            681
   5828.00000000           2168            441          -1535          -1107
   5832.00000000            -49          -1215            504           -123
   5836.00000000           1674            548           1449            976
   5840.00000000           -580             58          -2091           -677
   5844.00000000          -1760           2227             98            319
   5848.00000000           -733          -1089           -384          -1135
   5852.00000000            472           -408          -1332          -1404
   5856.00000000          -2031           1385           -862            642
   5860.00000000           1284           1705          -1337          -1256
   5864.00000000           -653           -121           -377            614
   5868.00000000            491            -31           -190           2116
   5872.00000000              9            463           -253             94
   5876.00000000           1066             35            365            324
   5880.00000000           1027            317            101           -419
   5884.00000000           -278          -1412          -2336            191
   5888.00000000           1914            902          -1458            386
   5892.00000000            576           2183           3290          -2459
   5896.00000000          -1423           1164           -692           -596
   5900.00000000           -484            847          -1179           -413
   5904.00000000           -251            777            442            232
   5908.00000000            815           -422           -428           1378
   5912.00000000            -94           -118           -268            234
   5916.00000000            170            489           -213           1053
   5920.00000000          -1172          -1241          -2113           -565
   5924.00000000            -70           -947          -1534            133
   5928.00000000           -897           1561            -56            994
   5932.00000000           2047           1648          -1887          -1805
   5936.00000000            792            607           -244            349
   5940.00000000           -826           -143            245           -632
   5944.00000000          -1396            474           1122           -265
   5948.00000000             61            -87           -279            867
   5952.00000000            933          -1144            463            939
   5956.00000000           -280           -802           -769            859
   5960.00000000           -673            -51            310           -813
   5964.00000000            807           2281           -404          -1071
   5968.00000000           1244           2368          -1514            304
   5972.00000000            424           -462          -1581          -1944
   5976.00000000            184           -239          -1698           -261
   5980.00000000          -1481           1336          -1418          -2730
   5984.00000000            144          -1114           -192          -1282
   5988.00000000           1854            147           -933           -216
   5992.00000000           1034           1609            145           -973
   5996.00000000            134            751           -137            893
   6000.00000000           -936           1426          -1368           -569
   6004.00000000           -665          -1533            380           -718
   6008.00000000           -938          -1897           -612            602
   6012.00000000           3768           1393           1571           -756
   6016.00000000          -1128          -1160             53           -225
   6020.00000000           -845           -109           1466          -1312
   6024.00000000           -568           -543           -945           -122
   6028.00000000           -300             71            200            430
   6032.00000000            864           -147            712           -375
   6036.00000000            514          -1966              9            972
   6040.00000000           -167           -213           -112            157
   6044.00000000            765           -254           -103           1533
   6048.00000000            362            592          -1092            289
   6052.00000000           1013           -459            327           -160
   6056.00000000           -743           1017            777          -1022
   6060.00000000          -1129            722            959           -681
   6064.00000000            876            -64           -388            355
   6068.00000000          -1352            267           -215          -1617
   6072.00000000          -1114           -305          -1252           1697
   6076.00000000           -476            178            450           1187
   6080.00000000          -1051          -1388           1508            306
   6084.00000000           -932            515            998            221
   6088.00000000            463            260           -672           1129
   6092.00000000          -1988           -802            245            103
   6096.00000000           -412           1320          -1234           -832
   6100.00000000           -854            774           -116           -688
   6104.00000000            444            839            725            487
   6108.00000000           -962            -79            -96           -696
   6112.00000000           -781            193           -546           -399
   6116.00000000          -1555           -939           1138           -580
   6120.00000000            284           -320           -332            753
   6124.00000000           -619          -1983            121          -1116
   6128.00000000            675            593            283           -544
   6132.00000000            283           -751           -232            -28
   6136.00000000           -135            887           -869           -913
   6140.00000000           -380           -654           -629           -471
   6144.00000000             90           -746           -118           -583
   6148.00000000            145           -811           1183             20
   6152.00000000            219           -271           -352            130
   6156.00000000           1364            778              8           -415
   6160.00000000           -489           1082             58            652
   6164.00000000            331           -835            157           -409
   6168.00000000           -275            229           -271           -730
   6172.00000000            143            414            248            545
   6176.00000000           -278           -406            465             49
   6180.00000000           1319          -1108            579            488
   6184.00000000            976             50           1064           1705
   6188.00000000            -63           -903           -145            -97
   6192.00000000           -673           -497          -1616            796
   6196.00000000            632          -1089            -18            473
   6200.00000000           1052           -282           -209            657
   6204.00000000           -202            803            290            621
   6208.00000000             34           -351             41           -936
   6212.00000000           -231            499           1746           -477
   6216.00000000           -499            789           1160           -281
   6220.00000000            635            152            533            148
   6224.00000000            269            552             57            442
   6228.00000000           -399            358          -1313             98
   6232.00000000          -2606            298            142            -93
   6236.00000000           -197           -533           -223           -463
   6240.00000000           -250          -1182            120            528
   6244.00000000            688           -550           -462            204
   6248.00000000            369             39            -97           -473
   6252.00000000            324           -249           -584            737
   6256.00000000           -555             38            560           -167
   6260.00000000            717          -1198           1053             34
   6264.00000000           1606           -505           -419            964
   6268.00000000            308            686           -605           -281
   6272.00000000           -414            376            397            207
   6276.00000000          -1025              6            437           -434
   6280.00000000           -788             98           -389           -209
   6284.00000000           1160            152           -935            825
   6288.00000000            531            333            648          -1258
   6292.00000000            331           -532            -96           -469
   6296.00000000            601            300           1156            133
   6300.00000000          -1297          -1506            118           -784
   6304.00000000           -190            744            405            151
   6308.00000000            121            -45            849            121
   6312.00000000            890            381            973          -1034
   6316.00000000            461             59            293           -891
   6320.00000000            -34            -38           -409           -754
   6324.00000000            410           -640            330            -40
   6328.00000000           -122            191            180            966
   6332.00000000            765            345            834             53
   6336.00000000           -654            111          -1255            734
   6340.00000000             57            574            349           -638
   6344.00000000            441            246          -1027            331
   6348.00000000           -471          -1454           -124            497
   6352.00000000            417          -1046            526            238
   6356.00000000            599            566            101           -242
   6360.00000000            336            307           -130            100
   6364.00000000           1204           -122            -98           -202
   6368.00000000           -151             86           -384            -32
   6372.00000000             89            207            588           -392
   6376.00000000           -753             89           -279            -74
   6380.00000000            303             73           -184             30
   6384.00000000           -401           -463            664           -119
   6388.00000000           -207            915            -75           -407
   6392.00000000            599            397            534           -292
   6396.00000000           1257           1106           -234           -354
   6400.00000000           -598           -666           -351            565
   6404.00000000           -305           -567           -111           -329
   6408.00000000           -301            -16           -253           -370
   6412.00000000            -37           -270            -28            741
   6416.00000000            -49           1186            527            693
   6420.00000000           -374            663            339            293
   6424.00000000            299            216           -216            483
   6428.00000000            838           -510             78            435
   6432.00000000            -82           -335            199           -585
   6436.00000000            666           -110           -115           -253
   6440.00000000            129           -696           -310           -153
   6444.00000000           -284            170            405           -238
   6448.00000000           -324           -260            726           -848
   6452.00000000           -489            -39            318           -445
   6456.00000000          -1221             33            188           -130
   6460.00000000             16            110           -578            881
   6464.00000000           -194           -297           1163          -1404
   6468.00000000            289            113           -573            438
   6472.00000000           -967            374            386           -287
   6476.00000000           -484            720            512           -597
   6480.00000000           -149             50            523           -309
   6484.00000000           -392           -355           -153           -319
   6488.00000000            -16            181           1181            741
   6492.00000000           -549            -75            513            253
   6496.00000000           -435            285            681             96
   6500.00000000             72            310             67             94
   6504.00000000            -62           1097           -486           -653
   6508.00000000            221           -200            253           -345
   6512.00000000           -324           -480             77            477
   6516.00000000            140            410             83            -25
   6520.00000000            773            696            249            730
   6524.00000000            -11            -27            234            177
   6528.00000000            509            615            240            669
   6532.00000000           -410            113           -461            438
   6536.00000000           -324            -69            189           1169
   6540.00000000           -511           -840             34            -50
   6544.00000000            164           -387           -555          -1054
   6548.00000000            447            570            348           -156
   6552.00000000            192            233           -749            488
   6556.00000000             88           -624            356            569
   6560.00000000           -238            774             10           -170
   6564.00000000            126            690           -219            -12
   6568.00000000           1165            147            440            222
   6572.00000000            109            105            404            219
   6576.00000000           -634           -592            772             65
   6580.00000000             89            728           -367             30
   6584.00000000            274           -151            186            418
   6588.00000000            -89            192            124           -314
   6592.00000000            -61           -230            319           -239
   6596.00000000            264           1021            558           -665
   6600.00000000             72            281            -68           -136
   6604.00000000             32           -360           -744           -325
   6608.00000000           -257           -431             48             57
   6612.00000000            125           1047            405             98
   6616.00000000           -472           -642           -239             69
   6620.00000000            330           -151            534            547
   6624.00000000           -136            387           -115            162
   6628.00000000            281           -607            232           -902
   6632.00000000            396            275            233            -80
   6636.00000000           -639            506           -369            854
   6640.00000000             80             55             79            377
   6644.00000000           -156            214            217           -133
   6648.00000000           -132           -150           -258           -157
   6652.00000000           -352            232            244            192
   6656.00000000           -155           -119            -53            252
   6660.00000000            182            248            129            264
   6664.00000000            236             17            150            454
   6668.00000000           -202              6            173            205
   6672.00000000             17            108            550            291
   6676.00000000            733            580            179           -286
   6680.00000000            394            137           -471           -592
   6684.00000000            475            806             88            701
   6688.00000000            922            247             38            -43
   6692.00000000           -372           -205            337              7
   6696.00000000            -38            305           -337             48
   6700.00000000           -188           -198           -208             -2
   6704.00000000             45            151           -475            573
   6708.00000000           -195            148            498            303
   6712.00000000            294           -277             62            118
   6716.00000000           -353            916            654            310
   6720.00000000            438            349            231            171
   6724.00000000           -347             97            -49           -480
   6728.00000000           -276           -174            188           -677
   6732.00000000             89            320            219           -133
   6736.00000000            121            507            394           -397
   6740.00000000            618           -527            394            196
   6744.00000000           -117           -124            -78            -48
   6748.00000000             92             -5           -168           -578
   6752.00000000            -53            -38           -158            -60
   6756.00000000            104           -318           -184            357
   6760.00000000           -152            158           -145            -65
   6764.00000000             38             32           -483            247
   6768.00000000            279            -45            283            734
   6772.00000000            213            -42              6            152
   6776.00000000            537            162             96            336
   6780.00000000            193            178           -830            461
   6784.00000000            111            -59           -410           -253
   6788.00000000           -235            429            129           -265
   6792.00000000            563            231           -249            293
   6796.00000000            223            105           -372            203
   6800.00000000           -333           -161            251           -381
   6804.00000000            110            482             92           -113
   6808.00000000            292            643             87            238
   6812.00000000           -264            267           -230            178
   6816.00000000           -244            181            441           -156
   6820.00000000            343            195            415            123
   6824.00000000           -121           -843            408            441
   6828.00000000           -188             55            165            344
   6832.00000000              6            179           -762            106
   6836.00000000            525             30            447            258
   6840.00000000            126            282           -619            422
   6844.00000000            182            267            833            129
   6848.00000000             11            185            168           -218
   6852.00000000            238            168            607              8
   6856.00000000            478           -433            178            -11
   6860.00000000            124            193            473            460
   6864.00000000            -91            376            181            216
   6868.00000000            566           -451           -732           -442
   6872.00000000             29           -163           -262            259
   6876.00000000            712            275             95            115
   6880.00000000            152            396             -4           -132
   6884.00000000           -376           -286            477            -48
   6888.00000000            184            278            312             67
   6892.00000000           -261           -230            685            -60
   6896.00000000            268            -49            522            204
   6900.00000000            467            361            150            181
   6904.00000000            -67           -352             54            -99
   6908.00000000             60            258            -53            -35
   6912.00000000           -105           -404           -274             -0
   6916.00000000            275           -349           -603             12
   6920.00000000            185            177           -206           -163
   6924.00000000            -77           -178            113           -365
   6928.00000000            552            230             85           -347
   6932.00000000            176            -71            -95            216
   6936.00000000           -160           -122           -416            689
   6940.00000000           -468            377             86           -168
   6944.00000000            138            515            216           -179
   6948.00000000           -292             65           -402            449
   6952.00000000           -407           -124            512           -218
   6956.00000000            -10           -199           -243            191
   6960.00000000           -138            133            410           -259
   6964.00000000            -57            414            -77             67
   6968.00000000           -471            353           -166            340
   6972.00000000           -266            129            246            -71
   6976.00000000           -100           -100            268             86
   6980.00000000            102           -176            -27           -119
   6984.00000000            133           -476           -129             19
   6988.00000000           -213              7           -198            427
   6992.00000000           -129            -53             -1           -139
   6996.00000000            107            -21            -55           -700
   7000.00000000           -409            681           -433            534
   7004.00000000             13             41            301            170
   7008.00000000            -34            -92            325             31
   7012.00000000           -192           -184           -201            182
   7016.00000000            -97             37            173            465
   7020.00000000            279            327           -403             -8
   7024.00000000              9           -523            217             79
   7028.00000000             59            163            327           -338
   7032.00000000           -440            -45           -263           -148
   7036.00000000            -19            -43              2            534
   7040.00000000           -107             72            265            149
   7044.00000000           -177            435            462            -24
   7048.00000000            365           -147            -30            362
   7052.00000000            615            200             -9           -170
   7056.00000000            127            445            146            -49
   7060.00000000           -214           -178           -417              0
   7064.00000000            249            295            649           -389
   7068.00000000            197             12            341            181
   7072.00000000           -368            185            102            310
   7076.00000000            -97            -15            552           -114
   7080.00000000           -167            284             24            139
   7084.00000000           -248            126            176            394
   7088.00000000             93            113            282             -3
   7092.00000000             -9              5            243             81
   7096.00000000            379           -185            182           -175
   7100.00000000            368            274             92            -16
   7104.00000000             84            308            140            147
   7108.00000000            -48           -193            139             61
   7112.00000000            -99             31             49            164
   7116.00000000           -114            174             28            243
   7120.00000000            169            139            -98           -350
   7124.00000000           -214            -30            179           -447
   7128.00000000            396            212            131             75
   7132.00000000             70            278            262           -166
   7136.00000000            188             76             89            153
   7140.00000000            -18            171            181            173
   7144.00000000             97            142            159            287
   7148.00000000           -174             24            442            264
   7152.00000000           -175            103            310            148
   7156.00000000           -190            -13             80            -81
   7160.00000000            126            328           -115            122
   7164.00000000            257            153           -330            -79
   7168.00000000            -37             91            -53            209
   7172.00000000             79           -149             50           -169
   7176.00000000           -172           -155           -128              9
   7180.00000000           -106            403             29             24
   7184.00000000            -89            260            106            185
   7188.00000000            375            167            130            123
   7192.00000000            400             43             63             88
   7196.00000000           -199             49             17             16
   7200.00000000             63            144            -38            122
   7204.00000000            -43            -35           -162            180
   7208.00000000             97           -291            482           -127
   7212.00000000            -11              6            -88           -178
   7216.00000000            105           -144             97            -77
   7220.00000000           -112            -80            -17            -57
   7224.00000000            -15             -9           -234           -202
   7228.00000000            195             54           -134            228
   7232.00000000             55           -292            101            121
   7236.00000000             43            222            234             51
   7240.00000000            -85            351            154            -35
   7244.00000000           -233             61           -155             94
   7248.00000000            186            252            177            -21
   7252.00000000            194           -264            193             75
   7256.00000000            -80            -76            122            139
   7260.00000000             14           -128            293            -64
   7264.00000000            111             26              8            189
   7268.00000000            -36             73             70           -204
   7272.00000000             56            107            -46            151
   7276.00000000            -10           -314            -38             66
   7280.00000000           -256            -16           -118            204
   7284.00000000            -30             43            112           -167
   7288.00000000             24            -69             51              8
   7292.00000000            155             39            428            294
   7296.00000000            237            -31            154            -64
   7300.00000000           -232            127            271            143
   7304.00000000            -49           -240            -77            448
   7308.00000000             80           -222             36             30
   7312.00000000           -169            231             73           -303
   7316.00000000            200            -47            316             -6
   7320.00000000             17            108            -84            -55
   7324.00000000            -46           -139            158            -45
   7328.00000000            162           -112            -44           -184
   7332.00000000             81           -157             31            140
   7336.00000000             72             37            -77            241
   7340.00000000           -130            -59             10            -76
   7344.00000000            132            319            -91            172
   7348.00000000             31             67              7             15
   7352.00000000            260              8            150           -191
   7356.00000000            172            170             11             -9
   7360.00000000              7            510            122            -70
   7364.00000000             97           -279           -143           -388
   7368.00000000            -63            183           -301            210
   7372.00000000             97             49            125            -54
   7376.00000000            196            151            278            240
   7380.00000000            234            -44           -293            208
   7384.00000000           -268            108            466             15
   7388.00000000             -7            280            144            -70
   7392.00000000           -208             27             12            324
   7396.00000000             64           -449           -120           -150
   7400.00000000            291            103             92             31
   7404.00000000            -69             44           -191            261
   7408.00000000            210             97            -42            -63
   7412.00000000             21            298            -35             74
   7416.00000000           -129            100            241             28
   7420.00000000            138           -179             67            176
   7424.00000000           -151             87           -105            310
   7428.00000000            -54             15             19           -407
   7432.00000000            130             59           -121            -56
   7436.00000000           -252           -177            254             35
   7440.00000000             54            138           -127             72
   7444.00000000           -107           -176            286            -43
   7448.00000000            128             22            101             46
   7452.00000000             23            204           -231            -82
   7456.00000000           -106             89             -5            261
   7460.00000000             88            151             98            108
   7464.00000000             66            -56           -152            -99
   7468.00000000             50             -8            116           -131
   7472.00000000             14            -63             71           -151
   7476.00000000             90             83           -132            108
   7480.00000000           -178            -29            329             48
   7484.00000000            256            282            270            -81
   7488.00000000            -35             73             25             89
   7492.00000000             19            -74            205             32
   7496.00000000            117            194             -1            -94
   7500.00000000           -181            -96             40            -67
   7504.00000000            224             76            107            145
   7508.00000000             84             46            -66            -85
   7512.00000000            115            215             98            -15
   7516.00000000            332            -80            163            121
   7520.00000000             80             59              9           -215
   7524.00000000            302            -88           -205             85
   7528.00000000            142            123           -126             30
   7532.00000000            171             -8           -225            255
   7536.00000000           -165           -257            -28             81
   7540.00000000           -118             83             71            296
   7544.00000000            173             64            -62            100
   7548.00000000             68             64           -129             -1
   7552.00000000             18            267             30            -18
   7556.00000000            161            224            -32           -132
   7560.00000000             -7            138           -119           -207
   7564.00000000           -148           -123           -154            -50
   7568.00000000            -65            -69            118            332
   7572.00000000           -202            -55             53           -115
   7576.00000000             83            214           -194             24
   7580.00000000            -71             34           -116            -44
   7584.00000000            -19           -104            -47            -68
   7588.00000000            135            200             15            191
   7592.00000000            167           -145             22           -117
   7596.00000000             -5            448           -220            -37
   7600.00000000            -78            -17            153             83
   7604.00000000            157            167            -30            -30
   7608.00000000            -34             15            165             60
   7612.00000000             81             32             46           -144
   7616.00000000            -11             10             41             30
   7620.00000000            103            158             91            118
   7624.00000000            -13             17            123            -54
   7628.00000000             68             -9           -186            101
   7632.00000000             21            -61             86             46
   7636.00000000            -58           -112            230              7
   7640.00000000             16             83           -122            148
   7644.00000000           -215             72            -61             35
   7648.00000000            -19             65             78            -57
   7652.00000000            180            -10            -40             16
   7656.00000000            100           -135            190             57
   7660.00000000             70            -63           -125             -4
   7664.00000000             62             56           -191             89
   7668.00000000            133            125            101             -5
   7672.00000000            181            -54             85            227
   7676.00000000             76             21            125            -67
   7680.00000000             52            -46            155            -49
   7684.00000000             50             -7            114            -54
   7688.00000000            -23            -52           -174             -8
   7692.00000000            -93            -21           -214             34
   7696.00000000             29            -77           -140           -106
   7700.00000000             56            -34            -35             75
   7704.00000000             93           -255             47            -14
   7708.00000000           -119            -38             -1             15
   7712.00000000            150            139            -81             40
   7716.00000000             13            -44            -92             18
   7720.00000000            -11            248           -177            121
   7724.00000000            -14            117           -160             51
   7728.00000000            -39            -83             80           -149
   7732.00000000           -246              9            -64             33
   7736.00000000            127             34             30             21
   7740.00000000            -16            -11           -115            -54
   7744.00000000             -1             49             63            -61
   7748.00000000            -58            -29             87           -143
   7752.00000000             81            100             88            -92
   7756.00000000             26            -90            212             79
   7760.00000000            -60            164           -106            -49
   7764.00000000           -191             26            -26             30
   7768.00000000            120             75            -48             -5
   7772.00000000            -24            143             75            -71
   7776.00000000            -80            -35             73             46
   7780.00000000            -20             98             10              1
   7784.00000000             -5             61           -191            -20
   7788.00000000            224            -34            122           -105
   7792.00000000            197             30            173            -51
   7796.00000000           -141             42            106           -108
   7800.00000000            -29            -33            -51             85
   7804.00000000             42            -31           -124             63
   7808.00000000            -42            -27             69            -38
   7812.00000000            138            -79             47             17
   7816.00000000           -101            142           -103              4
   7820.00000000             20             -7             67            110
   7824.00000000              2              2             16             77
   7828.00000000              6            109           -176             73
   7832.00000000            -34             96           -126           -123
   7836.00000000            -22             61             -2            -78
   7840.00000000            128            -35            123             28
   7844.00000000           -118            -43            -36           -198
   7848.00000000             41             99             35            -35
   7852.00000000            142             70             12             60
   7856.00000000              0            -20            -43             42
   7860.00000000             24             28            -78             56
   7864.00000000            -40             82           -112             51
   7868.00000000            130            176             17             27
   7872.00000000             45             58            -17             12
   7876.00000000            191             86            -46             11
   7880.00000000             34              3            145            -33
   7884.00000000            226             67            153            -69
   7888.00000000             12            -50             38            -50
   7892.00000000            223            -37             81           -103
   7896.00000000            124              0             65           -159
   7900.00000000             87             25            -53            -29
   7904.00000000             26            -53            -76            -12
   7908.00000000             28             62             87             -1
   7912.00000000            -12            -57            -11             19
   7916.00000000            -21            -21            -16             47
   7920.00000000           -135            -90            -94             67
   7924.00000000             29            -17             67            -43
   7928.00000000             52            -12            153            110
   7932.00000000            -10            -38            -12            -14
   7936.00000000            124             69           -137             84
   7940.00000000             32            -18             16            -68
   7944.00000000            -55            -33             22             92
   7948.00000000           -130              8             -9            -85
   7952.00000000             67             25              1            -50
   7956.00000000            -26            -69            -64            169
   7960.00000000            -68            -56             16            100
   7964.00000000            124            -78            -63             76
   7968.00000000            126              6             -2            116
   7972.00000000             57            155             61             60
   7976.00000000             90             -7             56            -64
   7980.00000000              6            -28            -17             23
   7984.00000000            -11             45              1            -49
   7988.00000000            -39             88           -114            -29
   7992.00000000             13             93            -34            -65
   7996.00000000             16            -58             64           -126
   8000.00000000             54              8            -56            -28
   8004.00000000             87             13             30             61
   8008.00000000            -41            -10            -37             57
   8012.00000000             74             59             63           -141
   8016.00000000            161             44              3             69
   8020.00000000            -31           -127             57             91
   8024.00000000            -73             39            -11             38
   8028.00000000           -121            -74             48             58
   8032.00000000             34            -67             46             72
   8036.00000000             43           -113            -69             38
   8040.00000000              7            -73           -152             -4
   8044.00000000              6            -58             84            -43
   8048.00000000             44             60            -21            -17
   8052.00000000             -4            -46              3            -43
   8056.00000000            -62            -13            -70            -81
   8060.00000000             53             -7             34            -27
   8064.00000000            -43            -10            -48             22
   8068.00000000            -87             21             25             47
   8072.00000000             13            -54              6             25
   8076.00000000             20             32             16             25
   8080.00000000             -8            -25             -7            -12
   8084.00000000            -33            -33             56            -56
   8088.00000000             54            -40             -8            -92
   8092.00000000             65             13             -7            181
   8096.00000000            -44           -103            -64             82
   8100.00000000            -39            -53            -21             -5
   8104.00000000            -13             14            -49            -27
   8108.00000000             44            -13            -18             38
   8112.00000000            -21             70             82           -132
   8116.00000000            -57            -29            -33            -13
   8120.00000000             57            -62              7           -121
   8124.00000000              2            -49            -10           -116
   8128.00000000            -10            -67            -23             24
   8132.00000000             -4            -78             30            -72
   8136.00000000            -16             56              8              1
   8140.00000000            -18             77            -70            -26
   8144.00000000            -73            -31             31             43
   8148.00000000             33            -24             18            -21
   8152.00000000           -106             16             43             -3
   8156.00000000            -72             21             24             51
   8160.00000000            -27             35             18             10
   8164.00000000            -23            -44            -53             24
   8168.00000000             -9            -26             22            -25
   8172.00000000            -56             10            -27              8
   8176.00000000             10            -15            -21            107
   8180.00000000            -42            -65             43           -100
   8184.00000000            -42            -52            -63            114
   8188.00000000             75             -5            -73            -72
##END NTUPLES=NMR FID
##END=
