##TITLE=CEC-PhSi2-flow(sequence-1615)-06-08-26
##JCAMP-DX=5.01 $$ Nanalysis NMReady v2.2.5.1
##DATA TYPE=NMR FID
##DATA CLASS=NTUPLES
##ORIGIN=Nanalysis Corp.
##OWNER=Nanalysis
##LONG DATE=2026/06/08 16:21:29-0400
##SPECTROMETER/DATA SYSTEM=NMReady 60/nanalysis-X542
##INSTRUMENTAL PARAMETERS=^1H
##TEMPERATURE=32.984935
##PRESSURE=1.000000  $$ Bar
##RESOLUTION=0.00001999999949
##SAMPLE DESCRIPTION=None
##.OBSERVE FREQUENCY=60.55193934560595
##.OBSERVE NUCLEUS=^1H
##.SOLVENT NAME=Toluene
##.ACQUISITION MODE=SIMULTANEOUS
##.SHIFT REFERENCE=INTERNAL, Toluene, 4096, 5.00000000000000
##.SOLVENT REFERENCE=5.00000000000000
##.PULSE SEQUENCE=1D
##.DELAY=(0.000000,0.000000)
##.FIELD=1.422225  $$ Tesla
##.OBSERVE 90=15.789399
##.ACQUISITION TIME=6.55279983446235
##.ZERO FILL=0
##.AVERAGES=4
##.DIGITISER RES=16
##.SPINNING RATE=0.000000
$$##.PHASE 0=-20.00000000000000
$$##.PHASE 1=79.00000000000000
$$ NMReady specific parameters
##$SCANS=4
##$SCAN DELAY=1.000014
##$TOTAL DURATION=31.338313
##$X_PULSE=14.210050
##$RECVR_GAIN=12
##$SWEEP WIDTH=20.000000
##$RELAXATIONDELAY=1.280964
##$ZEROING=7.000000
##$APODIZATION=0.030000
##$PHASECORRECTION=-20.000000,79.000000
##$PIVOT=0.000000
##$DT=0.000020
##$LOCKOFFSET=2.080000
##$SPECTRALCENTER=5.000000
##$DECIMATION=40
##$LOWESTF2=-322.240319
##$T2NUCLEUS=1H
##$PULSE_AMPLITUDE=17.500000
##$PLOTTYPE=1D
##$INTEGRALS IS MANUAL=False
##$INTEGRALS REFERENCE ENERGY=40011.270454041238
##$EXPERIMENT_SETTING_Apodization=0.03
##$EXPERIMENT_SETTING_Decoupling Mode=Off
##$EXPERIMENT_SETTING_Digital Resolution=0.02 Hz
##$EXPERIMENT_SETTING_Dummy Scans=0
##$EXPERIMENT_SETTING_Dwell Time=0.50 us
##$EXPERIMENT_SETTING_NPoints (Complex)=8192
##$EXPERIMENT_SETTING_Nucleus=1H
##$EXPERIMENT_SETTING_Pulse Angle=80.37, °
##$EXPERIMENT_SETTING_Pulse Width=14.21 us
##$EXPERIMENT_SETTING_Receiver Gain=12.00 dB
##$EXPERIMENT_SETTING_Receiver Gain (dB)=12, Auto
##$EXPERIMENT_SETTING_Scan Delay=1.0 s
##$EXPERIMENT_SETTING_Scans=4
##$EXPERIMENT_SETTING_Solvent=Toluene
##$EXPERIMENT_SETTING_Spectral Center=5.00 ppm
##$EXPERIMENT_SETTING_Spectral Width=20 ppm
##$EXPERIMENT_SETTING_TX Frequency=60.551939 MHz
##$EXPERIMENT_SETTING_Time Per Scan=7.8 sec
##$EXPERIMENT_SETTING_Zero Filling=7
##$RDC_ENABLED=1
##$RDC_TYPE=CONT5PAR
##$RDC_DATA=(0.145553,5.475700,2.437884,0.765625,0.888815)
$$ End of NMReady specific parameters
$$ Bruker specific parameters
$$ --------------------------
##$DATE=1780950089
##$SI= 65536
##$TDeff= 8192
##$SFO1= 60.55193934560595
##$O1= 302.75969672802978
##$SF= 60.55163658590922
##$BF1= 60.55163658590922
##$AQ= 6.55279983446235
##$SWH= 1250.00003157765696
##$SW= 20.64343512506120
##$SR= 0.00000000000000
##$OFFSET= 15.32179417163333
##$FIDRES= 0.15258789447969
##$O1P= 5.00000000000000
##$TD= 16384
##$DW= 399.99998989515007
##$SPECTYP= PROTON
##$NS= 4
##$DS= 0
##$DR= 16
##$DE=1.000014
##$RG=12
##$P1=14.210050
##$P= (0..2)
0.0 14.210050
##$PHC0= 59.50000000000000
##$PHC1= -79.00000000000000
##$PH_mod= 1
##$WDW= 1
##$LB= 0.02999999932945
$$ End of Bruker specific parameters
$$ ---------------------------------
##NPOINTS=8192
##DELTAX=0.0008000000
##NTUPLES=NMR FID
##VAR_NAME=TIME,FID/REAL,FID/IMAG,PAGE NUMBER
##SYMBOL=X,R,I,N
##VAR_TYPE=INDEPENDENT,DEPENDENT,DEPENDENT,PAGE
##VAR_FORM=AFFN,AFFN,AFFN,AFFN
##VAR_DIM=8192,8192,8192,2
##UNITS=SECONDS,ARBITRARY UNITS,ARBITRARY UNITS,
##FIRST=0.000000,1203.407111,354.107794,1
##LAST=6.552800,-0.000038,0.000064,2
##MIN=0.000000,-1113.581966,-879.616041,1
##MAX=6.552800,1203.407111,986.412440,2
##FACTOR=0.00079999997979030013,0.00000056038027352064,0.00000056038027352064,1
##PAGE=N=1
##DATA TABLE= (X++(R..R)), XYDATA
      0.00000000     2147483000     1411567063     -225703181    -1563201739
      4.00000000    -1987189804    -1401127581     -291072356      727533602
      8.00000000     1205474803     1086015246      559489669         658692
     12.00000000     -275158200     -254893143     -214481115     -403304038
     16.00000000     -758213295     -872774807     -425758086      481383249
     20.00000000     1324725314     1560445532      995604354      -95574191
     24.00000000    -1167275482    -1676281097    -1358333064     -377272571
     28.00000000      715450901     1305935027     1138855043      464196722
     32.00000000     -191213291     -453440181     -361115489     -211183274
     36.00000000     -234583773     -393327195     -459599635     -234899777
     40.00000000      274940387      833564280     1082249313      780117058
     44.00000000      -13283981     -896055756    -1348000984    -1076559703
     48.00000000     -245502677      645673384     1090455470      917049472
     52.00000000      338492010     -237226787     -504730111     -419921576
     56.00000000     -183056574      -38285415      -94277413     -228369512
     60.00000000     -209527762       84385376      524766866      793607825
     64.00000000      625709682       37303910     -657234042    -1029967302
     68.00000000     -846906786     -208656152      504628542      893551675
     72.00000000      774638322      282493353     -246075641     -504456105
     76.00000000     -417921396     -150610880       45136551       37774049
     80.00000000      -94952995     -150578238        9253718      321306877
     84.00000000      554832198      480065107       72289835     -458856119
     88.00000000     -788816896     -689903591     -204611486      389343842
     92.00000000      744858455      676595113      260716635     -219824710
     96.00000000     -477151050     -416331163     -157933095       69952872
    100.00000000      117739239       12161676      -80239628      -22837616
    104.00000000      182477368      374145056      364144347       86771664
    108.00000000     -317726891     -599097191     -560288834     -192051349
    112.00000000      293521112      608590478      574092932      238524484
    116.00000000     -177201435     -421736246     -390842106     -160973097
    120.00000000       70521657      153056067       81179204      -32468576
    124.00000000      -41733034       81091643      239426093      272075504
    128.00000000       95638790     -208410103     -448331419     -445540676
    132.00000000     -178175011      209262811      480542597      478753711
    136.00000000      215960117     -135876276     -363618415     -350945495
    140.00000000     -153342681       69235123      165501826      106429935
    144.00000000       -6737707      -49047139       27553098      151871103
    148.00000000      196893312       85727540     -136400273     -324169674
    152.00000000     -341310099     -152196124      141752214      364708482
    156.00000000      385790404      188629481      -95497870     -295938928
    160.00000000     -303141955     -141071336       54812540      154576188
    164.00000000      119930088       16097617      -44811610      -11598192
    168.00000000       81775889      135880627       83461470      -71217418
    172.00000000     -223373698     -265659605     -141313315       82738044
    176.00000000      275462629      313934826      170812153      -60388066
    180.00000000     -236046919     -254886160     -132142855       33688559
    184.00000000      134936534      121422434       36440449      -35712994
    188.00000000      -37859693       25506458       89218091       77851984
    192.00000000      -18040694     -146597959     -207004681     -136346513
    196.00000000       39741943      208922843      257746888      153645267
    200.00000000      -36904764     -191362170     -217988362     -121798168
    204.00000000       23188859      121689085      120292915       46980722
    208.00000000      -31672270      -50546396       -2628724       59109002
    212.00000000       69611631         482520     -100957604     -157669150
    216.00000000     -108966127       21814171      155386602      202207979
    220.00000000      131941134      -16551138     -149454246     -188592502
    224.00000000     -116997017        8543458      107228321      122985048
    228.00000000       61300437      -19305554      -54873985      -25533489
    232.00000000       27000152       49279063       13557063      -59959946
    236.00000000     -108333272      -85515061        5255718      110242192
    240.00000000      160272549      111325336       -4783922     -121499996
    244.00000000     -163981438     -110847826          85685       93211839
    248.00000000      122030267       72586462       -5577455      -54673038
    252.00000000      -48695056       -3429688       31563194       22387100
    256.00000000      -24569236      -67193308      -65991842       -5322773
    260.00000000       75185734      120265666       93657060        6270251
    264.00000000      -93434501     -135251637      -98027211       -8200441
    268.00000000       80048171      110011133       76181087        3381541
    272.00000000      -52114376      -62057273      -24372305       18615239
    276.00000000       27200572        -815072      -38574933      -48349560
    280.00000000      -13446556       48053369       87423902       75019109
    284.00000000       11369051      -65847671     -110135251      -88844550
    288.00000000      -16772193       66874611      100406773       74882134
    292.00000000        8559305      -50048262      -65169767      -34410699
    296.00000000        8436545       28791115       15531603      -15261525
    300.00000000      -32782666      -18643119       22892568       59030840
    304.00000000       59131090       14591467      -45905793      -86866152
    308.00000000      -77958457      -13834753       53712295       88577520
    312.00000000       66692766        8797021      -44630254      -62891999
    316.00000000      -40919631        -360065       32115187       33259185
    320.00000000        4646152      -20653253      -24865090        2693388
    324.00000000       37097790       46853529       17247991      -32275551
    328.00000000      -67682169      -58387319      -11469635       42265515
    332.00000000       73616240       61635731       11996240      -41859200
    336.00000000      -67856034      -48883551       -1965826       36905239
    340.00000000       41325625       15925944      -15269846      -25490060
    344.00000000       -8066165       20824703       33030935       15748556
    348.00000000      -17287520      -46726681      -46272392      -15160810
    352.00000000       33138030       63819624       56371254       12132242
    356.00000000      -40036559      -63695943      -46487961       -1855837
    360.00000000       35493074       42530923       24922814       -6157351
    364.00000000      -21454837      -17110729        3661013       21127213
    368.00000000       16602019       -7327740      -32201664      -39447116
    372.00000000      -14495213       25905950       53964406       48169596
    376.00000000       11597457      -33032127      -55493613      -43354418
    380.00000000       -8343404       26534692       41264838       29532308
    384.00000000        -337320      -22708560      -21760066       -2856040
    388.00000000       16755862       20987324         550080      -23063883
    392.00000000      -32498239      -16096465       17485991       44188706
    396.00000000       41606954       12698113      -26828592      -48166274
    400.00000000      -41501778       -9676927       25228728       40272592
    404.00000000       26998048        -791258      -22083914      -22782826
    408.00000000       -6850310       14694160       18701101        4830522
    412.00000000      -16009605      -25334166      -13531789       10838533
    416.00000000       33532617       34992794       12890067      -18806959
    420.00000000      -41898795      -37913942       -8822243       21541720
    424.00000000       38451313       26421057        -434054      -18407860
    428.00000000      -23161145      -10257682        9150336       16802263
    432.00000000        8882760       -8317724      -20830600      -14136701
    436.00000000        6667534       24650465       28827302       11934758
    440.00000000      -14561305      -34316910      -32798775       -9372642
    444.00000000       17374095       32069134       23773963        3124416
    448.00000000      -16595427      -22572998      -11973961        5621434
    452.00000000       16898778       10612947       -3289234      -16742859
    456.00000000      -14034165        1546230       17881096       20183152
    460.00000000       11597772       -7476689      -28260519      -25849407
    464.00000000       -8956583       12292411       25634213       21983206
    468.00000000        2521963      -15321420      -20987493      -11963500
    472.00000000        2085043       13362254       12241271        -554423
    476.00000000       -8345009      -11253060       -1210655       10145417
    480.00000000       17234444        8075040       -6224010      -18518015
    484.00000000      -20172344       -6212465       11546124       20823227
    488.00000000       17592805        4436386      -11049157      -17978259
    492.00000000      -10314752        -499117       11156650        9391856
    496.00000000        2143241       -7276048      -10898293       -4580032
    500.00000000        7871109       13999935        9364520       -2315741
    504.00000000      -13765557      -14799698       -6907523        5690377
    508.00000000       15644274       13558178        4466202       -9668434
    512.00000000      -15676239      -10836408       -1056389        7408074
    516.00000000        9506152        5466226       -3144109       -8684814
    520.00000000       -5156560        3328484        6784935        6485179
    524.00000000         277335       -8851122      -11217297       -4940069
    528.00000000        3564507       13247362       10747225        3528880
    532.00000000       -5391065      -12238875       -9773041       -2187639
    536.00000000        5917143        8900173        5067902       -1624433
    540.00000000       -5528425       -2837824        1240372        3224268
    544.00000000        4358124         252746       -4000514       -6354064
    548.00000000       -2939053        3531544        8306436        8210658
    552.00000000        4887942       -2082264       -8700734       -8966105
    556.00000000       -3431989        4932993        8353349        6760341
    560.00000000         382430       -3769942       -4488707       -2778634
    564.00000000        1403461        3804705        1850775       -1778589
    568.00000000       -3080621       -3660697         -49043        5004715
    572.00000000        5963182        1903559        -983681       -5623101
    576.00000000       -5808526       -2146375        2089916        6126147
    580.00000000        4511340         833023       -2820256       -4561368
    584.00000000       -3997474         988967        3849950        2286323
    588.00000000         438259       -3669052       -1463339        -475619
    592.00000000         418764        2758831        2499963        -982031
    596.00000000       -2713048       -3832325       -2025458        1708183
    600.00000000        4136108        3625867          96086       -2891614
    604.00000000       -3675134       -2570577         304621         838977
    608.00000000        2519059         503924        -211796       -1329930
    612.00000000        -153386         748399        -200467        2770056
    616.00000000       -1254736         685781       -1585988        -111045
    620.00000000        2059281        1651480        4760313         652313
    624.00000000        -759002        -856507       -1754816          17565
    628.00000000         380927        -752289         251753        1363288
    632.00000000        -416912        -300724        -410432         976584
    636.00000000        1742814        1501207       -2733695       -1671855
    640.00000000       -1558335         -51425        2371165        1519345
    644.00000000        1439892        -447461        -729857       -1632130
    648.00000000          67522        1246633        1518481         903584
    652.00000000          83074       -2393061        -667399        -333630
    656.00000000        1749383        1305952        -584628        -549890
    660.00000000        -765060       -1492562         -81258        1915581
    664.00000000        2255580        2603330        1462140       -1342145
    668.00000000       -1581030       -2017718        -828978         848008
    672.00000000        -319752         396716          56099       -1332988
    676.00000000        -185011        -187433        -655479         622458
    680.00000000       -1888311        -880426         282969         263833
    684.00000000        1399667         733983         355144        -652130
    688.00000000       -1493520       -1371751       -1865941        1012631
    692.00000000          83129        1934223        -766476       -1115000
    696.00000000       -1162892        -960633         444602        -652176
    700.00000000         994522         764799         954475         661422
    704.00000000         209354          65480          63526        1421351
    708.00000000         870013        -867937       -1816810        -792592
    712.00000000        -672532         465446        1090171         753956
    716.00000000        -462745         -70711         589754       -1565610
    720.00000000        -796704        1352186        2129099         298724
    724.00000000         596190       -1653082       -1136713          23368
    728.00000000        -341095        -967342        -444780         290241
    732.00000000        -982946          89903         803990         152375
    736.00000000        3146256          91397       -1460840        -964621
    740.00000000       -2009037       -1148532        -485377        1320085
    744.00000000        1347994        1057661         -14063         -99592
    748.00000000       -1585187         140856         246379         839142
    752.00000000       -1521293        -242233         131648        -136220
    756.00000000         957329        -105588         725043       -3117062
    760.00000000       -2488405       -1528080        -795996        1916178
    764.00000000         -70760         632065        -291029       -1274371
    768.00000000         -31496        -592453        -219322        1065191
    772.00000000         485617         885169         208278         182769
    776.00000000        -518557         472367        1906487         128266
    780.00000000         -99185       -1068949       -1516936       -1874920
    784.00000000         336914        1064553        2661925        -216705
    788.00000000         956325       -1404020         617309        -220632
    792.00000000         621733        1287010         268366        -836015
    796.00000000        -329485        -819878         -63807        1344354
    800.00000000        1607311         995212        -871153        -254100
    804.00000000       -1742427         520575         908837         326235
    808.00000000        1587910        -496679       -1187601        -280877
    812.00000000        -935448        1571103        -265706         473386
    816.00000000       -1450816        -677399        -987980        -557893
    820.00000000         926608        -191314         731682        1031636
    824.00000000        -560820        -748284        -578147         256311
    828.00000000        1207034         963521         -86467       -2294677
    832.00000000       -1523830       -1229855        -474943         892131
    836.00000000        1068934         696179        -205910       -1165208
    840.00000000        1220649        -205394         202651        1527711
    844.00000000         442601       -1014061       -1182777        -277248
    848.00000000        1514002         430511         368073        -666262
    852.00000000        -309577       -1680018       -1144984        -229271
    856.00000000         350386         777421         868195          80306
    860.00000000        -161010         155342         557860       -1275519
    864.00000000         819667         337783         982462         882104
    868.00000000        -301986        -861325          72453         622321
    872.00000000        -369581        -862159       -1306123        -303965
    876.00000000         -37866        1214487        1067866        1334053
    880.00000000         596960          22885         266515        -598841
    884.00000000        -184260         191433        -849900       -1245917
    888.00000000        -646445         620757        -287979        1014588
    892.00000000         396625         686636         803279         574953
    896.00000000        -991782       -1212071        -223989         755808
    900.00000000        1006865        1007654         215522       -1784936
    904.00000000         832516        -883029        -496017         626744
    908.00000000          37454         508683       -1143769         790597
    912.00000000         275998         130529        -184214       -1194712
    916.00000000         643864        -376110        -638475        -519947
    920.00000000         836978         425714        1218714         -42507
    924.00000000        -327707        -538876        -122459       -1086441
    928.00000000         519940         259125         394648        -485846
    932.00000000         932562       -1038588         192516        -669569
    936.00000000         929369         -49839        -980939        -410149
    940.00000000         -40038        -541290         341535         268188
    944.00000000         898442        -551706         654873         108221
    948.00000000         -15141        -287146         516081         733733
    952.00000000        1344844         377016        1118054         758181
    956.00000000         -63239         400559        -405838         818592
    960.00000000        1333826         909271        1176690         995984
    964.00000000          54833         513970        -435359         -26350
    968.00000000        -102245        1338554         800999        1197674
    972.00000000         414868         584560          85024        -222325
    976.00000000        -493035        -192311        -207966          65402
    980.00000000        1037515         708231        -870854        -916825
    984.00000000        -744204        -700944         793734        -334910
    988.00000000         402235        -134177         880480        1107780
    992.00000000        -192675          99865       -1816969        -188977
    996.00000000        -486519        -261624         185997        -580380
   1000.00000000         103100       -1103817         -32302         673776
   1004.00000000         469375        -336207         533107         880718
   1008.00000000        -749830        -591652       -1371940         200832
   1012.00000000        1199097         345206        1036082         -73171
   1016.00000000         307413         148039         298733        -984109
   1020.00000000        1518311         168416        -703562        1421325
   1024.00000000        -139111         274005         -88141         958830
   1028.00000000         315497         378739        -680319         211682
   1032.00000000         117558         418605         450236        -286365
   1036.00000000         972961       -1108279         562152        -322139
   1040.00000000           4681        -368163         497423        -382331
   1044.00000000         360595        -664386        -189358        -538855
   1048.00000000         667768         106059         581670        1073486
   1052.00000000        -226185        -871432          25108         764025
   1056.00000000        -610066        -611095         391692       -1318948
   1060.00000000        -957046        -571287        -355561         987531
   1064.00000000        1073616        -454920         206965          34509
   1068.00000000        -327539        -505997        -907469         286044
   1072.00000000        -967092         173422         958655         -54109
   1076.00000000         100408          64448        -625587       -1520431
   1080.00000000        -410176        -158557         798448         535393
   1084.00000000        -231776         175453         721465        -498213
   1088.00000000       -2333015        -785524        -343096         118507
   1092.00000000         413012         273015          60115       -1200775
   1096.00000000         981278         225142        -124736         490932
   1100.00000000       -1623851        -875706       -1377353         652007
   1104.00000000        1462695         300359         315614         610521
   1108.00000000         628701        -788909        -423466        -525931
   1112.00000000         100080         210871         415531        -998780
   1116.00000000         -68887         196934         -89240        -448430
   1120.00000000        -651237        -557097        -557144        -970873
   1124.00000000         556422         637666        1231958        1235963
   1128.00000000        1635165        -560221       -1249024        -264034
   1132.00000000         597616          70819        -487116         669898
   1136.00000000         282222         127571         508729         511586
   1140.00000000         395140        -282120        -133909        -356289
   1144.00000000          75477         388611         233356         289191
   1148.00000000        -427695        1322396         168509       -1152517
   1152.00000000        -512059        -350154        -417308         302334
   1156.00000000         292881        -392606        -223320        1096468
   1160.00000000         590247         601412        -838084       -1278681
   1164.00000000          44521        -467159        -125424         -12233
   1168.00000000         579371         257325       -1022789        -518428
   1172.00000000          98856        -829848        -312534        -404906
   1176.00000000         123243         139128          89033         596090
   1180.00000000        -675063         -53285          72823       -1132654
   1184.00000000         -84910          49507        -598535        -186811
   1188.00000000          45194         456864         886701         969319
   1192.00000000        -534037         202081       -1215132         553147
   1196.00000000         -95103         962441         153893       -1011465
   1200.00000000        -273298         -77739         449605         -57577
   1204.00000000         244483        -749076        -633543        -125089
   1208.00000000         560032         159907         442083        -291536
   1212.00000000        -338943         213725         159958         488263
   1216.00000000        -213520        -206259         -52936        -986126
   1220.00000000         641752        -623363       -1118544        -970901
   1224.00000000          62425          69963          74350        -786762
   1228.00000000        -864993         -40678        -584467         979844
   1232.00000000       -1098452         365218         285928        -819465
   1236.00000000         307848         131450        -395807        -603158
   1240.00000000          33440        -392172        -495807         440068
   1244.00000000        -203164        -475770        -333264         348712
   1248.00000000         292355          34017         440896         -54886
   1252.00000000         440402         435995         -50112          16742
   1256.00000000        -166025         -37242         -45965         559524
   1260.00000000         643632        -340466        -187350         283001
   1264.00000000        -427709        -260208        -117240         159477
   1268.00000000         341622         554908          91458        -608855
   1272.00000000         998159         546791        -239782          94055
   1276.00000000        -430614         119456         122437         568495
   1280.00000000        -692221         172487         708201         444783
   1284.00000000        -181198        -204770        -687700        -579638
   1288.00000000        -492846        -111305         418624        -247944
   1292.00000000        1402485         366857        -243308        -179339
   1296.00000000          46608        -606423         427512         161858
   1300.00000000         611088         270213        -114768        -196519
   1304.00000000         -25143        -115472        -186650        -131641
   1308.00000000       -1018579          75242        -550398         480310
   1312.00000000         347435         274568         414436       -1085964
   1316.00000000        -110459        -274821         984911          41113
   1320.00000000        -193305         151285         483299         434253
   1324.00000000         247793        -350336        -340942         489657
   1328.00000000         -57289         330089         -84077         529263
   1332.00000000         655299         361044         -45474        -336922
   1336.00000000         798646        -114691         -86190        -352341
   1340.00000000        1085923        -298303         554745         698557
   1344.00000000        -154277         649460         571739        -285113
   1348.00000000        -266788         184243         138181         -77545
   1352.00000000         -86156          36197        -736361         495565
   1356.00000000         447088         557883        -606964        -220159
   1360.00000000         681176        -463863         270767         179550
   1364.00000000          89458         710310         127398         163517
   1368.00000000         107921        -564458        -199490         -75618
   1372.00000000        -756906         624708          95265        -162127
   1376.00000000         583704         716692         -91096         -60484
   1380.00000000        -225662        -201888         724294        -100410
   1384.00000000         644686          -7307        -267070         182482
   1388.00000000        -177620         -63174        -254009         181217
   1392.00000000         495617        -171404        -604330         174423
   1396.00000000        -622789         703138        -109969        -145031
   1400.00000000         211752        -206059        -244269          23278
   1404.00000000        -296807         126000         206107        -205180
   1408.00000000         132023        -310165        -703826         561226
   1412.00000000         446015         294047         417732          25160
   1416.00000000        -193161         225973        -545411        -295799
   1420.00000000        -710974        -143715          42805         253605
   1424.00000000          13087        -494523         206956        -249779
   1428.00000000        -186353          -7062        -140008         424571
   1432.00000000         224178        -174247         104375        -124848
   1436.00000000        -352648         526863          77015          83776
   1440.00000000         373775          58702        -403013          37617
   1444.00000000         -33057         428285         648912         530749
   1448.00000000           2382         370679        -418353         -33976
   1452.00000000          10371          11148        -254207         374959
   1456.00000000          51472        -280328          -8033        -102708
   1460.00000000          -9385         107239         619918         309214
   1464.00000000        -430663         318756         643423          45189
   1468.00000000        -380925         287957         197140         -71636
   1472.00000000          69975         414963         259602         528170
   1476.00000000        -411852         765603        -286364         292369
   1480.00000000         117981        -439032          -5501         120525
   1484.00000000         607841        -143561         215621        -686149
   1488.00000000         405090        -235242        -311944          16785
   1492.00000000         442582        -905508        -495289         -74936
   1496.00000000        -248599         719231         398180         175546
   1500.00000000          43697        -236749         224415         467865
   1504.00000000         -60562          50881        -783893        -242712
   1508.00000000         547713        -354169         392890         818162
   1512.00000000        -394023         470815        -237924         555747
   1516.00000000         247826        -263204        -259920         521582
   1520.00000000         726140         507187         158610        -450764
   1524.00000000        -749112         412603        -217142         388053
   1528.00000000         431232         212216         191221         710424
   1532.00000000        -353269         772578         523992        -334797
   1536.00000000        -440693        -172622          10735        -620203
   1540.00000000        -318991         441931         243908         322398
   1544.00000000        -337107        -165530          81952        -113745
   1548.00000000         310462        -580726          32211         166040
   1552.00000000         141199        -196332         136461        -352874
   1556.00000000        -316169         190530        -183281         167249
   1560.00000000        -227938         214845          80065         178236
   1564.00000000          50009         172718         -71242         -24737
   1568.00000000         383915        -289974         494320         501426
   1572.00000000         412499         -63088         725825        -213535
   1576.00000000         170846         636007         131546           7994
   1580.00000000         496691        -132956          66132         106193
   1584.00000000        -157987         422706         190404         -51090
   1588.00000000          71112        -135135        -182437         283528
   1592.00000000         269183        -656588          42863         519894
   1596.00000000         -38111          90597         290915         311928
   1600.00000000        -181229         423802         522762         119355
   1604.00000000         -44470         308876        -285387         -76428
   1608.00000000         173946        -769864        -121245         286378
   1612.00000000        -117194         417247        -330656         -54541
   1616.00000000        -213846          79946         -66311         225652
   1620.00000000        -237776        -231283        -269006         -40004
   1624.00000000         505988        -230737         130814         144938
   1628.00000000         -51075        -141968         205611         179758
   1632.00000000         289923         650393         360251         213506
   1636.00000000         201059        -149450         251376        -349777
   1640.00000000         142784        -263497         170361        -437324
   1644.00000000         165070        -239427         182951         110016
   1648.00000000          89612         -16999        -369060         -36845
   1652.00000000         457332         177069         264016        -538752
   1656.00000000        -138561        -142286         -70315         158040
   1660.00000000          78415        -145885         -36226         208417
   1664.00000000        -165753        -175358         179896         100182
   1668.00000000          29069         -59661        -762259        -199323
   1672.00000000        -573180        -151595        -294537         120403
   1676.00000000          27410        -390941         361275         -66573
   1680.00000000        -102237         279763        -562626        -317282
   1684.00000000        -112428         435328        -400338         -93204
   1688.00000000        -369243         -83230        -379735         102159
   1692.00000000         496947         509198        -224319         -72701
   1696.00000000         543699        -287677         -56821          81184
   1700.00000000         257193        -603789         -13508         536622
   1704.00000000        -635500         -22679         -40885        -112899
   1708.00000000        -527142         330861           9941          13571
   1712.00000000        -344467          61472        -498195        -297429
   1716.00000000        -307047         584398        -146062         251299
   1720.00000000        -329815        -116077         -45677        -686865
   1724.00000000        -376549         281919          27056        -437685
   1728.00000000         101022         -82970         570297        -114162
   1732.00000000         295600          39829          70476        -117912
   1736.00000000         887719        -107524        -281236         242825
   1740.00000000        -357720        -500754         -54213          -5704
   1744.00000000         142869        -449404          70219         194641
   1748.00000000         257496        -249115        -101910        -337719
   1752.00000000         325393        -125479        -350990          55867
   1756.00000000         -36411        -294098        -294725          96090
   1760.00000000         268304          17475         -51185          78348
   1764.00000000         329321         379817        -436386         177269
   1768.00000000        -175670        -368303        -390123        -128348
   1772.00000000          85314         223909        -122474        -211836
   1776.00000000         568763          81058         165298        -114132
   1780.00000000          -7408        -210329         109596         103673
   1784.00000000        -105048         329765         731979        -188541
   1788.00000000         366453        -230712        -592074        -259085
   1792.00000000         304353        -164952           1851         -11330
   1796.00000000         -12186          72531        -157617         237860
   1800.00000000         161543        -113859          86842         405990
   1804.00000000         204044        -431410        -165836        -182516
   1808.00000000         -76976        -103373         183331          67027
   1812.00000000         -93173        -127645         432842         181658
   1816.00000000         162026           2875          11228         208834
   1820.00000000         -31381         189124         -19446         116310
   1824.00000000         -25618          25655        -159454         262646
   1828.00000000         353897         316962        -146872         124031
   1832.00000000         -70735         -51709         -60475         324541
   1836.00000000        -454618         141265        -191929        -148631
   1840.00000000         133069         116715         130077        -143223
   1844.00000000         167838           4800        -212986         104933
   1848.00000000         241374        -364498          45260          -7946
   1852.00000000          35921        -246193        -474174          19798
   1856.00000000        -110107        -167604         132469        -436955
   1860.00000000         358075          31627        -107435         370114
   1864.00000000        -114777        -266630          71528        -204446
   1868.00000000           4176        -346257         -30468          20822
   1872.00000000         -63763          84934         288283         303495
   1876.00000000          67391         171959          76132          69510
   1880.00000000         234553        -119925         137450          79464
   1884.00000000          35177         163144         -19405        -262727
   1888.00000000         447466          -9088        -573746         -22416
   1892.00000000          32589         170363          -7573          96642
   1896.00000000         258164        -152624         154891        -365734
   1900.00000000        -394447        -156129         135371          -3228
   1904.00000000         -38801        -317280         -23648        -245340
   1908.00000000         -34542        -128135        -281064         386311
   1912.00000000        -218817         419131         -10116        -181325
   1916.00000000         106815          28509        -172687         187232
   1920.00000000           5532          68247        -150895        -186887
   1924.00000000        -287046        -484326         173819        -149894
   1928.00000000          37986        -104205        -288901        -501970
   1932.00000000         625580         349432        -219927         -32485
   1936.00000000         135197        -183135        -257967          13334
   1940.00000000          83434        -294690        -113308        -328321
   1944.00000000        -150256         169824         -65694         272929
   1948.00000000        -201518        -251789         203390         -89996
   1952.00000000         136663        -192294         219468        -104172
   1956.00000000         455014         -44033         116881        -112907
   1960.00000000         309634        -123617        -287743        -285779
   1964.00000000          20819          91589        -367782        -215140
   1968.00000000         -81623         -38174        -129425        -256746
   1972.00000000        -546072        -356369          13781          72053
   1976.00000000          54003        -131580         249036         183581
   1980.00000000         281814         -84481        -299676          85601
   1984.00000000         177659         153842         107085         257835
   1988.00000000         -57812         173852        -178495         122060
   1992.00000000        -140521         -83716         113743         -96241
   1996.00000000        -137162        -161704        -216027         152219
   2000.00000000           6250        -226756        -103525         118169
   2004.00000000         -23521        -223181        -370409         114798
   2008.00000000        -257999         374689          -6562        -248877
   2012.00000000         -35464         260114          21059         -96600
   2016.00000000        -147789          37483         147438          13456
   2020.00000000         295848        -135130          87407         -23668
   2024.00000000          25516          37463         -27088          84545
   2028.00000000         112942        -175184        -229675          88927
   2032.00000000        -149387         -86183         260402         318352
   2036.00000000         -93959         300952         -20903         -92956
   2040.00000000          39342        -171662         139075         -70989
   2044.00000000          46142          64167        -103258         287831
   2048.00000000         212294        -406835         139041         -79294
   2052.00000000         106912         365187        -193566          27685
   2056.00000000         -58684         250505         349135          23958
   2060.00000000         -88115         268471         254552          -6288
   2064.00000000         150679        -119276          45723          -4564
   2068.00000000          82127          10925        -157213        -281414
   2072.00000000          99094        -145591          86161        -105052
   2076.00000000         195644         278948          65651        -138256
   2080.00000000        -270583          43921        -129272         -44746
   2084.00000000        -329799         -63662         -18506        -283187
   2088.00000000          79117        -372334         -50650         240406
   2092.00000000        -111170        -309375         301562        -335008
   2096.00000000          36838          42269         146814         -28931
   2100.00000000        -188196         -72979        -103159         190716
   2104.00000000          94682        -171515          40331          32826
   2108.00000000        -148277         -76070          23816        -277752
   2112.00000000         -24343         366934          91009          64824
   2116.00000000         301614         142705        -238895         111238
   2120.00000000        -159924          32982         -26770         105333
   2124.00000000         205229         -30854         136314         -73973
   2128.00000000         -72760          68902         235358        -370463
   2132.00000000          35394          25188         586845         203187
   2136.00000000          52580          71151         -26158         451750
   2140.00000000          65336         -51333        -325001         241571
   2144.00000000         266219          54613          86624         113313
   2148.00000000        -244989        -120374        -136311         -84941
   2152.00000000        -132098        -325074         382428          75395
   2156.00000000         -55448         141691        -333489         -65289
   2160.00000000         -64801        -518570         371026         129554
   2164.00000000        -305849         -58604        -342955        -102388
   2168.00000000        -111973        -190421           3715         278427
   2172.00000000        -136238         372874         206928        -153164
   2176.00000000        -336861         -63880          12196        -101222
   2180.00000000         185219         -51397          80860         162293
   2184.00000000         110714         -13608          15623        -117997
   2188.00000000           -367         164578         182166          76961
   2192.00000000          22873         -41447          57473         -53720
   2196.00000000         114859          45818         -60838         -82057
   2200.00000000          45797          41078          90722          27028
   2204.00000000        -102469         203262        -263615          -3731
   2208.00000000         288572          97583        -127811         -97307
   2212.00000000        -148550         -23355         -28542         -62292
   2216.00000000             76        -232665         129359         161855
   2220.00000000         130175         -81937          90104        -280641
   2224.00000000          44716          38928        -105702         -40701
   2228.00000000          80635        -133502        -224138          -5284
   2232.00000000         243705          99484         -80218         -57606
   2236.00000000         -65024        -188986          15772         100141
   2240.00000000          -9973        -120030          83780           4272
   2244.00000000         102659         146981         242612         -78720
   2248.00000000          58716        -169210         -86679        -190696
   2252.00000000         154134        -106788         168312          76619
   2256.00000000        -108424          50916         -72181         127542
   2260.00000000         118111          51767        -217188          27688
   2264.00000000         -55846         187701          51104         -52107
   2268.00000000        -143044        -199008         -75189         156427
   2272.00000000         122605        -288600          45560         160618
   2276.00000000        -169386        -211400        -182913         -76978
   2280.00000000         -23779        -195596         -76279           7828
   2284.00000000         138765        -122610          77790         147621
   2288.00000000         183064         255274          -1928         -61315
   2292.00000000        -194850            503         -69786         -28746
   2296.00000000        -182328          39817          73619        -359973
   2300.00000000         -44290        -114206         -83969          87883
   2304.00000000         -19881          38923        -183173        -174672
   2308.00000000         130305          52110            939         -25251
   2312.00000000         245314         239406         -89816        -112114
   2316.00000000          14086         124130         -98598        -228105
   2320.00000000         -14264         128665        -139618         140391
   2324.00000000         -54538          29170        -169771        -123378
   2328.00000000         151708          50324          -9413         -69422
   2332.00000000          86829          75348         -75021         -51600
   2336.00000000         -94028         -38025        -155211        -123977
   2340.00000000          -2252         -90570         -20485          14524
   2344.00000000        -275252          79125        -163252          68105
   2348.00000000        -104520        -130123        -176339        -246075
   2352.00000000          69705         128659          59465         -41425
   2356.00000000        -182249         -16771        -111396        -164606
   2360.00000000          62817        -219844          24348        -340463
   2364.00000000          11207         249900         -65143         -60108
   2368.00000000          48680        -131391         -56111         124722
   2372.00000000          66192          87421         187631        -223168
   2376.00000000         -67086        -124259         -22052          52886
   2380.00000000         -66678         115814        -188757         -11413
   2384.00000000          75598          44097          57289           3334
   2388.00000000         -23658        -103749         233015        -199213
   2392.00000000         -51586          79688        -187936          60312
   2396.00000000         -23295         -41651         109278         -33633
   2400.00000000         -64846          -2724         -38526         -56097
   2404.00000000            603          35904         -83821        -182577
   2408.00000000        -111385         103173          63189          30821
   2412.00000000         105006        -201112        -119293        -103066
   2416.00000000         -12884         -17170        -179481           7747
   2420.00000000         126768          54149        -202347         -43654
   2424.00000000        -167505        -284906          60174          19765
   2428.00000000         -67696        -200543         -67101         -73374
   2432.00000000          20774          66547        -145244          55218
   2436.00000000        -108111        -153862           3889          69494
   2440.00000000         124325         -97430          50473         146204
   2444.00000000         106817        -131557         -67398        -245303
   2448.00000000         -29712          72332          34507         151854
   2452.00000000          50020        -224565        -105006        -192239
   2456.00000000         171563         -40351         -22244        -125146
   2460.00000000          19033         -72440         101088        -140391
   2464.00000000        -149665        -191927          48838         131291
   2468.00000000        -101238         -10126         224948        -203811
   2472.00000000        -157768         185128          69879         -29931
   2476.00000000        -118142          28790         -45374         207689
   2480.00000000         -60557        -104639         -78298          14914
   2484.00000000          22006         -99704          41562         -28264
   2488.00000000         -44726          30847         -41588        -153786
   2492.00000000        -220928         -64281         120912         102079
   2496.00000000          21356        -212098         157446         -10112
   2500.00000000        -119432          36758          89904          20952
   2504.00000000         -81348          90067        -127860          58869
   2508.00000000         -60643         -79456         -60287          10954
   2512.00000000         -40563         -43582         -29074         -97315
   2516.00000000        -144809         -41869        -129558        -153989
   2520.00000000         158595         -19798         -98841          32742
   2524.00000000         -53825          49008         -23252         108108
   2528.00000000          -8467        -139483         -32694         -60316
   2532.00000000         -68843        -134920        -109286           1540
   2536.00000000         -53711          -8770        -178163         -22698
   2540.00000000         -35822          -8046         253170         113135
   2544.00000000          14860        -166606        -188841          51917
   2548.00000000         -18515         -54813        -137475        -124843
   2552.00000000          38851          31610            679        -138405
   2556.00000000         -66457          48834         -91267         -57561
   2560.00000000         -55182        -129308        -218928          56174
   2564.00000000        -116187         -15935         -23068         145916
   2568.00000000         -48806        -111649         -84557          79415
   2572.00000000         189754          40459         -72194         -77432
   2576.00000000          43987         -70648            452          27223
   2580.00000000          -5913        -229036         -61632         -46070
   2584.00000000         -58137         -45152         118444          76732
   2588.00000000         -29839         -18583         -57343          77981
   2592.00000000         -91897        -224027         -10762          10736
   2596.00000000         -25019           2013        -210959           2824
   2600.00000000         -38332         -59646         138803          30531
   2604.00000000         -40308          28941         -16029        -127341
   2608.00000000        -130273        -177002          39764         -72278
   2612.00000000        -126149         132398          51846         -54832
   2616.00000000           6298          13955          29600         -85739
   2620.00000000         -82973         -84949         -70803        -153515
   2624.00000000          -3674           4060         -92897           8024
   2628.00000000          28927         -61357          76288         -16297
   2632.00000000          -3931        -120832        -119427          23494
   2636.00000000          53981         116015           6025           6863
   2640.00000000         -52064        -121251          70838         129760
   2644.00000000          14385          43128           1157         -52826
   2648.00000000          35858        -176296        -108535         -55332
   2652.00000000          88671          27482          16319         -99197
   2656.00000000           3609        -153816         -14385         -61846
   2660.00000000         -53428        -142827          47396          56441
   2664.00000000         -42858          21368          -4213          32569
   2668.00000000         -88370         -66459         -50040         -57137
   2672.00000000           8758          79504        -158202         -34198
   2676.00000000         -96322         -44956         -54650         -24687
   2680.00000000         -34615         141415         -11857         -75197
   2684.00000000           -940        -145650        -237791         -34509
   2688.00000000           9951          88193         -20953         158077
   2692.00000000         -19693        -113588          99360        -174420
   2696.00000000          68138         -55340         132521         -20281
   2700.00000000         -51556        -208526        -126405          -3261
   2704.00000000        -105556          25295          29379         -66005
   2708.00000000        -210608         112017          72244         -12022
   2712.00000000          -3894         -78873          -5102          37608
   2716.00000000         -47844          20196         -40036         -79279
   2720.00000000         132425        -104259         -46916          58933
   2724.00000000         -80127          14041          88426          46005
   2728.00000000         -10768           1339         -99091        -141994
   2732.00000000         104414         -32809          74905           3881
   2736.00000000         -48268          44710         -41884        -145869
   2740.00000000          20101         -56879          57809         -35801
   2744.00000000         -16354          56101          19928         -17640
   2748.00000000          20589         -14364          31835          63616
   2752.00000000         -40484         129501           7520         -45354
   2756.00000000         -30703         -58458         -43017         -34304
   2760.00000000        -114356          28425         -59770         -90677
   2764.00000000          23791         -14481         -24961         -90752
   2768.00000000           9413         -33208         -24289         -60551
   2772.00000000         -46622          70958          47345         -38167
   2776.00000000           9414        -107488        -118267            568
   2780.00000000          51992         -67744          51312         -37644
   2784.00000000         -78891        -122935           8828         -18072
   2788.00000000         135822          72017          -6050          84870
   2792.00000000         -89098          85077         -12527          71598
   2796.00000000          -9366        -183884          76576          10248
   2800.00000000         122338           3171        -140807         -79971
   2804.00000000         -34552         -24098          53782         -13866
   2808.00000000         -38045         -10901          56967         -43621
   2812.00000000          42374          62680         -18009         -13631
   2816.00000000         -91283          35908         -50049         -52449
   2820.00000000         -27118         -54616        -106897         -74609
   2824.00000000          50200          71791        -142186          41879
   2828.00000000          -2369         -64754           7307         -72208
   2832.00000000        -100274         -43923            922        -128329
   2836.00000000         -59676         -16730          31526         -80956
   2840.00000000         -58329          61197        -167551         -16092
   2844.00000000         -51691         -47265          47719         -23152
   2848.00000000          40612          81236          12925          63887
   2852.00000000          77795         -65027         -65247         -10094
   2856.00000000          16614         -36405           8054          26583
   2860.00000000         -17878         -33901        -105010          20585
   2864.00000000         -50292         -28074         -29811           9541
   2868.00000000          56402         -68673        -152936          -7917
   2872.00000000        -124116           6481         194638         -35230
   2876.00000000          25795         -10851         -17059          -5051
   2880.00000000          14215          28272         -60440          46093
   2884.00000000         -46633         -31944          68262          20090
   2888.00000000        -123089         -48684         -45629         -14648
   2892.00000000          25826        -104152          30567          -9318
   2896.00000000          49962         -43038          59239            588
   2900.00000000        -176196         -10423          27606          12283
   2904.00000000         -90744         -78334         -49327          29863
   2908.00000000           6420         -17511         -48289          12587
   2912.00000000         -10539           3999          92959          15928
   2916.00000000          41841          48995         -40780          97590
   2920.00000000         -68746          41563         -37881          65952
   2924.00000000          68812         -83392           3253        -115527
   2928.00000000          98901          43445         -19565         -35340
   2932.00000000          23616         -18379         -36549         -33417
   2936.00000000         -31089            921         -31794          31863
   2940.00000000          97434         -52540         -11197         -69751
   2944.00000000         -70627          25872          19374          -1032
   2948.00000000         -56416          40420          30023         -88876
   2952.00000000        -117838         -77846         -45775        -105175
   2956.00000000         -29196        -102629          91299          44141
   2960.00000000         -79125         -20065         -10521          18730
   2964.00000000           4313         -36026         -36532          48111
   2968.00000000         -53909          -4232          25288          45690
   2972.00000000         -13742          34688         -33293         -22696
   2976.00000000          19793         -10093         -16122         -43013
   2980.00000000          -9783         -30349        -111104         -12839
   2984.00000000         -28452          19376          29707          36703
   2988.00000000         -81611          29857          43291         -16745
   2992.00000000         -24514          47661          69368          26549
   2996.00000000         -16821         -67903         -50201          53117
   3000.00000000         -74086          25491          44473          72519
   3004.00000000          73493        -110488         -63287         -56503
   3008.00000000          19132         -23182          19487          44468
   3012.00000000         -35414         -23035          63139         -60486
   3016.00000000          10314         110739         -52850        -112800
   3020.00000000          -6338         -47693         -20785            230
   3024.00000000         -85773         -32700          11536         -37814
   3028.00000000          25432         -38202          14503           6028
   3032.00000000          18442         -36869         -61674         -27774
   3036.00000000         -67919         -46028         -52181          14946
   3040.00000000          27390          59423         -23995         -33434
   3044.00000000         -40142         -87163         -21642        -100921
   3048.00000000          32370         -26735           9642          36669
   3052.00000000          32270         -34668         -14783         -24177
   3056.00000000         -99944         -57069          -6229          67510
   3060.00000000          62559          37594          74117            147
   3064.00000000         -69600         -62429         -37082          -8110
   3068.00000000          26789          41551            216           1656
   3072.00000000         -59522          -2052          64716          32740
   3076.00000000          15736         -20380          22390         -27501
   3080.00000000         -38537         -35232         -33201         -34590
   3084.00000000          31528         -77342          22223         -56557
   3088.00000000        -104865         -29476          37417         102304
   3092.00000000         -89763          59129          10617          -4284
   3096.00000000         -37321        -101124          10156          37997
   3100.00000000        -132098          -6709          18696          74165
   3104.00000000         -76778          27465          54537        -159478
   3108.00000000          -7283          57461           4807         -79369
   3112.00000000         -65907         -54084          34991         -11675
   3116.00000000         -15791           6062          19176           1552
   3120.00000000         -48313         -76094         -33354          52534
   3124.00000000          53325         -26953           5136         -14471
   3128.00000000           5919         -14837         -43578         -11519
   3132.00000000          22669          17325         -37622         -54154
   3136.00000000          12484         -11111         -15467         -58725
   3140.00000000         -74782         -48122         -54379          92968
   3144.00000000         -57556         -55047         -42886          15212
   3148.00000000           2262          13873           7493         -69654
   3152.00000000          49123         -43349          30942         -78212
   3156.00000000          30452         -47277         -10953          27139
   3160.00000000          59298         -36901         -80358           3971
   3164.00000000          27387         -14295         -74850         -21564
   3168.00000000          41879         -90514          32580          -8249
   3172.00000000         -57834          43826         -23415          -6044
   3176.00000000         -42936         -44626        -113955          66027
   3180.00000000         -62645          49358          40038          -6630
   3184.00000000          -2433         -28385          63643         -48281
   3188.00000000          52563          34232         -63019         -49194
   3192.00000000         -79538          41363         -10011          42670
   3196.00000000          38384           4877            364         -36771
   3200.00000000         -13270          52795          50165          87945
   3204.00000000          26759         -14819           -134          -1972
   3208.00000000         -30478          -6827         -46808          19416
   3212.00000000         -30387         -23505         -88933         -26576
   3216.00000000         -23476         -80990         -64439        -100995
   3220.00000000         -45740         -37553          -2071          26135
   3224.00000000          52506         -57330           9497         -35609
   3228.00000000         -81240         -53376         -33805           8850
   3232.00000000         -28730         -32934         -45371           6496
   3236.00000000          30256           1324          12388          97696
   3240.00000000           4077         -24515         -20027          25506
   3244.00000000          53917          -1856         -38164          56702
   3248.00000000         -40191          38621          -7339           1791
   3252.00000000           4417         -40974          -8659         -31698
   3256.00000000           7533          24196         -44323          29586
   3260.00000000          58011         -50345         -37536         -38816
   3264.00000000         -28143          14583          50437         -46058
   3268.00000000           6842          44615         -44755          -7776
   3272.00000000         -22511         -26555          12071         -37891
   3276.00000000         -14837           1872         -10998         -39151
   3280.00000000         -33446         -23355          -1930          21291
   3284.00000000         -13906         -62191          14522          -6698
   3288.00000000           8232         -27384          12476          34891
   3292.00000000           3527           8922          79066         -51239
   3296.00000000           8080         -46832         -13290          29925
   3300.00000000          -5236         -28425          -3240          26860
   3304.00000000          27708          25079         -92684           5400
   3308.00000000          36907           8270          43357          37552
   3312.00000000          -8801          64514          65228         -19111
   3316.00000000          27114          23593         -39166          -6502
   3320.00000000         -16921         -59386          11894          19629
   3324.00000000         -24391          -5970         -28127         -37985
   3328.00000000          35308         -37529         -13487         -37730
   3332.00000000         -75312         -37228          14778         -21630
   3336.00000000          12455         -73000          -7932          26519
   3340.00000000         -34169          13926         -33876          -2320
   3344.00000000          36850         -37519          17057          53961
   3348.00000000         -17820          37996           7774         -12877
   3352.00000000          29065         -56468         -32546          29953
   3356.00000000          80785         -56827          50700          21724
   3360.00000000          35448          17751         -30951         -48165
   3364.00000000         -68918          41777         -24008          18370
   3368.00000000           5256         -30764          17096         -51961
   3372.00000000          -3295         -54486         -19813         -10374
   3376.00000000         -10127          -3686          32563         -67430
   3380.00000000          69170         -36864            954           7578
   3384.00000000          37220          61760          19522          -9091
   3388.00000000          -7015          -2762          54077         -18677
   3392.00000000         -11810         -20388          31770          13460
   3396.00000000         -33391         -14828         -25353          36755
   3400.00000000          12068           7570          27853          11375
   3404.00000000         -55508         -30582          -6306         -26661
   3408.00000000          50227         -32048          -6508          16536
   3412.00000000         -40162           1616         -68049         -31358
   3416.00000000           6218           4839         -37294           5397
   3420.00000000          -1343          29240          33938          42753
   3424.00000000         -15589          -6520          -7503          17971
   3428.00000000          16237         -42119         -42091          52232
   3432.00000000          26805         -25472         -49181          -9689
   3436.00000000         -15908           1101         -43979          16246
   3440.00000000          14149         -33634         -20237         -57714
   3444.00000000         -34170          51637          17064         -24282
   3448.00000000         -16727            110           9614          41736
   3452.00000000          56925           -871           2564         -26082
   3456.00000000           1057          -1731          32201          -2283
   3460.00000000         -15967          -6902           2531         -23479
   3464.00000000           8579          33912          46595         -42801
   3468.00000000           4877         -47781          20328           3120
   3472.00000000           2338          59629          19067         -36067
   3476.00000000           7380         -35463          30536          -9767
   3480.00000000         -16017          17873          17387         -24372
   3484.00000000           8695          22109          25735         -33061
   3488.00000000         -23671         -30170         -46553           3578
   3492.00000000          14225          -9938           8262         -51058
   3496.00000000          -3497          49293          14998           2265
   3500.00000000          26033         -43624           7731         -21933
   3504.00000000         -11627          23432          -8932          27251
   3508.00000000         -12942         -25503         -32931          44799
   3512.00000000         -23269         -10925          -5921          -6302
   3516.00000000           1654         -13701         -15175          36921
   3520.00000000          27767          50176         -32273          42832
   3524.00000000          -8036           6945         -15851         -14423
   3528.00000000          33053          30556         -11836          -9358
   3532.00000000            628         -13633          13361           4635
   3536.00000000           4008          25462         -33639         -31889
   3540.00000000          11766         -21503         -26191          -9330
   3544.00000000          82570         -32031         -22700          -2536
   3548.00000000         -34654         -23636          34131          35863
   3552.00000000         -51052          24027            848          19602
   3556.00000000          88159         -29857         -25741          23227
   3560.00000000          32050           7176          10094          -1103
   3564.00000000          -7513          -1051           6671          11074
   3568.00000000          17714         -69662          12830          30104
   3572.00000000          -4852          -4166         -18733          15609
   3576.00000000           7841          48116          -9029          25301
   3580.00000000          16877          40440          13376          28940
   3584.00000000         -26668          55876          16672         -22869
   3588.00000000         -16418          30372          62046           5390
   3592.00000000          47263           -482          -5437          -9643
   3596.00000000          28551           5556          42267         -31243
   3600.00000000         -10262          -2933         -45690         -24862
   3604.00000000         -23397         -25134          -6301           8657
   3608.00000000         -12523          44643          15875         -17530
   3612.00000000          -7745          33436          -1191          -1261
   3616.00000000         -15901         -14924         -24902          -8277
   3620.00000000           6449         -35633          -7729         -18896
   3624.00000000          11356          27175         -12816           3086
   3628.00000000           3410         -16924          25577         -35354
   3632.00000000          29627          21833          -8626          -2208
   3636.00000000         -11436          18869         -61613          -1932
   3640.00000000           4404         -18586          -8099         -22497
   3644.00000000          17200            864           3528          31466
   3648.00000000         -42154          10751          15363          -4650
   3652.00000000           1123          25362         -45182            481
   3656.00000000         -21834          23957         -38474          11431
   3660.00000000         -22410         -12451          -3842         -35966
   3664.00000000           3925            584          10647          31851
   3668.00000000          -5935          20132         -34702          22872
   3672.00000000          24382          12751           2775          -6479
   3676.00000000         -15110           8360          27260          12920
   3680.00000000          -8751          34395         -14502           2156
   3684.00000000           9696         -26157         -22118          22311
   3688.00000000         -25043          -7025          41109           2355
   3692.00000000           6484          27068           2636          12034
   3696.00000000         -16759         -14450          -6790         -20393
   3700.00000000           -892          -1822         -16047          36523
   3704.00000000          23314          12763         -48645          -9669
   3708.00000000         -32570          33150         -14965          10088
   3712.00000000         -11161         -11912            -36          21961
   3716.00000000         -14631          31005          24444         -12692
   3720.00000000         -10267         -10278          -3997          25883
   3724.00000000          -7345          -5395          26904          -1108
   3728.00000000           -350         -44392           1234         -36181
   3732.00000000         -12848         -17011          24289           1824
   3736.00000000          46847         -18552          28276         -20257
   3740.00000000         -15598           4479           -146          -6701
   3744.00000000          11731         -14896          12828          11225
   3748.00000000         -13855          -8485         -10341          19664
   3752.00000000          18292          13547          20825          20922
   3756.00000000          10010            564          10561          -6545
   3760.00000000          20632           5792          17244         -11148
   3764.00000000          16348          -1127         -15768          -4586
   3768.00000000         -14022         -14017          17377          12781
   3772.00000000           9594          13631         -17828           -527
   3776.00000000          23906         -24607           7344          -7323
   3780.00000000         -13785         -16971          15082          -5171
   3784.00000000          14226         -19745           1348          20300
   3788.00000000          12148           4594         -14680         -18823
   3792.00000000           -512          -4114         -22039          -3133
   3796.00000000          48448         -27931          -1469          35711
   3800.00000000          -7932         -10579          -3867          21269
   3804.00000000          13568          46081          -4642          11715
   3808.00000000          -7609         -12448         -31142          32988
   3812.00000000          -5537           1474         -39693           6838
   3816.00000000          12914           8876         -28267           1519
   3820.00000000           6709          11516          26378          24472
   3824.00000000          -2641          14547         -27108          33595
   3828.00000000          25658         -10311          12076         -19327
   3832.00000000         -35732          42044           3396          -7722
   3836.00000000          47878          28572         -10753           -841
   3840.00000000          23915          -9654          26504          -3081
   3844.00000000           1499          24773           4668         -12889
   3848.00000000         -21720          -4597         -13146           8668
   3852.00000000           3692          13496          15046           4504
   3856.00000000          29103         -34728          31972           2985
   3860.00000000          21931           -530          18066         -21895
   3864.00000000         -26321         -35219         -11201          12684
   3868.00000000          32520           9845         -29526         -16291
   3872.00000000         -17796         -18054         -17256          23489
   3876.00000000           2577          13625          -3784           8970
   3880.00000000          24645          -6921           6571         -11244
   3884.00000000          40433           5382           1788           3019
   3888.00000000           6651          -1531          -7770         -21319
   3892.00000000          14861          27516         -21141          -3102
   3896.00000000           8965           1219          14562           8300
   3900.00000000          15974           9309          15629          18834
   3904.00000000          15041          16901           2367           5577
   3908.00000000          -1867           6654          19134           4672
   3912.00000000         -18446          34021           1179         -25814
   3916.00000000         -16665           4749           3598           -950
   3920.00000000          13891          11345           4189           7882
   3924.00000000         -14354         -13313         -14423          35341
   3928.00000000          10553         -25844           4539         -25774
   3932.00000000         -11843         -14571          16620           5101
   3936.00000000          16539         -15351         -16280          17561
   3940.00000000           7914         -19891           6867          22901
   3944.00000000         -17297           1983            523          13464
   3948.00000000           7603          -2589          14682          48501
   3952.00000000           6962         -26506          -3370          -3477
   3956.00000000         -17608           7812          31439           1774
   3960.00000000           2323           4856          14760          13677
   3964.00000000         -23379          15787         -17680           8971
   3968.00000000         -31306           8257          12259          -1896
   3972.00000000          -5523          -1064          13767          -2108
   3976.00000000         -11312          -9091         -20541         -18129
   3980.00000000           5861         -24549           8824           4923
   3984.00000000          24023           -355          -5191          18141
   3988.00000000           2308           5653           5002           4536
   3992.00000000          -1191            773          -9326          21576
   3996.00000000           8622          -1343           2217         -11615
   4000.00000000           7165         -15199           2008          18705
   4004.00000000         -17437          -6177           2525          26547
   4008.00000000          11530         -25554          18557          17000
   4012.00000000           3539          -3277           4784          -6466
   4016.00000000         -26831          25128         -30623          -5200
   4020.00000000          -1856          -4256           9105           5195
   4024.00000000          -9262         -35528          22647          19259
   4028.00000000           3800          10021          -2282          13478
   4032.00000000          12692          33215         -10492          16414
   4036.00000000         -14226           9905          -1470          10219
   4040.00000000           7513           5566           7806             73
   4044.00000000          11753          -7031         -18867           -899
   4048.00000000           7196          -4893          12339          -3415
   4052.00000000          -1527          -6375           9693          23960
   4056.00000000           8897           9255          -1988         -27118
   4060.00000000          23036          -1751         -13215          -8856
   4064.00000000          10261            311           9745          12846
   4068.00000000          24274          -9289         -15063           9440
   4072.00000000           7222           8987          17972          16645
   4076.00000000         -18562          12113          -5070         -12766
   4080.00000000          -1766          -1612           1366         -10485
   4084.00000000          -9998          20189           2369          24450
   4088.00000000           -715           6193          -8097          -1923
   4092.00000000          -7338          26347          27337           4937
   4096.00000000          22257         -13858          10180          -1014
   4100.00000000           -322           7455          21848          -6447
   4104.00000000         -17775           8004          16772            411
   4108.00000000          -1493            928         -17487           9518
   4112.00000000          14681          -8639          -6262          -5380
   4116.00000000         -10725          -1850           3367           7510
   4120.00000000           3035          -9729          -5499           3810
   4124.00000000          -3413          10967          -2185           6423
   4128.00000000          -2746          -1606           6167         -16282
   4132.00000000         -18616          24227          10717         -18553
   4136.00000000          14855          21964           -577          -6153
   4140.00000000          -2487           5592           3585           4676
   4144.00000000           8104           6802            298           3660
   4148.00000000           3184           3653           5777           -939
   4152.00000000          -1847          27329          -2600         -16265
   4156.00000000            342            172          19298          11913
   4160.00000000           1208          16528          18394          -6868
   4164.00000000          -5962           6696          14748         -11568
   4168.00000000             35         -11827          18557          14275
   4172.00000000          22165           1986           3271           3863
   4176.00000000          -9996           2813          13183          -3304
   4180.00000000           8569           8278           4931           4190
   4184.00000000          11290           1567          -7525           2800
   4188.00000000          27075           6496          26473           -923
   4192.00000000          -8736          -1059          15938           6177
   4196.00000000         -13206           1953          -4829          -4280
   4200.00000000          -8342            384           3295         -12324
   4204.00000000          -9901          -8242           3043           7367
   4208.00000000          13123          -7270           -448           3960
   4212.00000000          -9277           4281             24           9404
   4216.00000000           2611           6292          -2379          -9053
   4220.00000000           4816           9677           3315           1302
   4224.00000000           5698         -20490          -1014           -684
   4228.00000000           -982          -1947          -3896           4056
   4232.00000000          -2705          28275          -2231           9338
   4236.00000000          10229          -7017          14620          -9460
   4240.00000000          13937           1363           9057         -10761
   4244.00000000          10170           5174           1752          10380
   4248.00000000           3625          -3077           6142          -7448
   4252.00000000          11077          11695          -8121          -1425
   4256.00000000          -7367           1582          14769           2960
   4260.00000000          10176           2659          16115           7148
   4264.00000000           2284           9678          12038          -8622
   4268.00000000         -14381         -10651           5301           5304
   4272.00000000          21248           3786          10181           -641
   4276.00000000          10324           7727           8164          22561
   4280.00000000           4233          -1714           2392          -3742
   4284.00000000          -1042           3849          16561          14636
   4288.00000000         -18152         -10556         -11471           4982
   4292.00000000           7874           5196         -10308           4446
   4296.00000000          -2288          14588           6653          10200
   4300.00000000           1822           9866           2057          11799
   4304.00000000           8722          -4197          -6023         -16167
   4308.00000000           -467           5778           1195          -6773
   4312.00000000         -13972           9623          -7991          -3558
   4316.00000000         -14321          -2085          11837          -2841
   4320.00000000             46          11072          15950          -3403
   4324.00000000          -9170            323           6894           3308
   4328.00000000          10716         -11780           1098           1836
   4332.00000000           3838           2268         -10537          -8899
   4336.00000000          13322          -4912          -1320            282
   4340.00000000           -650          -4350           4647          11481
   4344.00000000          -3149          11137          -1821          17733
   4348.00000000          19021           3892          -6744          15728
   4352.00000000             35          15260         -13950           6346
   4356.00000000         -10041          -2073           4436           2783
   4360.00000000          -9831          12060           5675          -5285
   4364.00000000         -14061           2759            331           9072
   4368.00000000         -14187          11684          11568          10590
   4372.00000000              8          -1604           2197          -2679
   4376.00000000           8104          -4359          -3161            386
   4380.00000000           1600          -9505           6930          10231
   4384.00000000          -2858           5393           1757          -8094
   4388.00000000           3427            842           1936           5434
   4392.00000000           3698          -1371          -3865          -3080
   4396.00000000           2703           9268           3421          22839
   4400.00000000          16939          -1223           1647           -662
   4404.00000000           2218           2692           -615          12564
   4408.00000000          -2021          20459           6867          12945
   4412.00000000           -358          -5116          -2609           3693
   4416.00000000           6124          13142          10641          -2571
   4420.00000000          -4384          10789          -7375           -342
   4424.00000000           2590          -2814           2902           7635
   4428.00000000           1888           5136          -2957            880
   4432.00000000           5898           5517          10847          -3339
   4436.00000000          -4564           2861          -2539            305
   4440.00000000           -776          13477           2863         -11651
   4444.00000000          -5987           2322          10971         -30898
   4448.00000000          12434          16647          -7390          14654
   4452.00000000           9812           6111          15930          -4429
   4456.00000000          -6303          -9369          -9886           6330
   4460.00000000           2172          11077           1638          -3267
   4464.00000000           -214          -6515           2885          11124
   4468.00000000          -3211           3160          15512          -2638
   4472.00000000          17159          14997          -5131            178
   4476.00000000          -6441          -3772           1626          -1470
   4480.00000000           5171          17215           5807          -8630
   4484.00000000            707           1197            308          -5529
   4488.00000000           8448           2451          -7274           1605
   4492.00000000          -2607           7400          10095           7750
   4496.00000000          -3406           -509           5124           3521
   4500.00000000           2832           7290          -3948           1287
   4504.00000000           9341           9389          -4110           1028
   4508.00000000          -3493           5272         -12088           3068
   4512.00000000           3886          -4937          -5832           -197
   4516.00000000           2896           -705           9582          10577
   4520.00000000          -2329          10108           1103           4249
   4524.00000000           1945          -5246          -4194           -362
   4528.00000000          11143             58          -3599          -4382
   4532.00000000         -14128          -6750          -4986          -3144
   4536.00000000           2077           4982         -11798          -5683
   4540.00000000          -3455          -8721          10753            -65
   4544.00000000           7542          -4718           2047            323
   4548.00000000          -6725           2617           1323           1739
   4552.00000000          -2838           1384           7574           -657
   4556.00000000           -327           1698          -9411           7307
   4560.00000000          -4411           -377          12110           2442
   4564.00000000           3443            957          -1256          -2593
   4568.00000000          -1131           5133          -8394           5063
   4572.00000000          12523          -2583           9820           1013
   4576.00000000          10217           3285           9272           4932
   4580.00000000           6431          -8444             45          13937
   4584.00000000           8451           1275           2574           8176
   4588.00000000          -5246          -2937            704          -3212
   4592.00000000           -852           -357          -3726          -2198
   4596.00000000           9744           4482           4684           1680
   4600.00000000           1599           7384          -3300           7412
   4604.00000000          -2672           5810           2669          11851
   4608.00000000           5282          -8929           7602            644
   4612.00000000            199          13051           3311          -1179
   4616.00000000           4139          12709            385          -8793
   4620.00000000           -385          -2698           -375           2058
   4624.00000000          -4389           2847          -3689          -3460
   4628.00000000           -730          -1088          -5016          -7061
   4632.00000000           1563           6101           1530          -9874
   4636.00000000           6409            522          -2168          -5251
   4640.00000000           1963           2843          -1706           1694
   4644.00000000         -10036          -5002         -10406          -8780
   4648.00000000          -3004         -17104          -2183          -2435
   4652.00000000           5432           4112          -5790          14118
   4656.00000000          -8426          -1585           5935           2071
   4660.00000000           9912            430           2076           7457
   4664.00000000           3103         -12718           1821          -4780
   4668.00000000           5295           -795          -6188           4431
   4672.00000000          -5897           3534           1421           1342
   4676.00000000          -4097            934            783           4860
   4680.00000000           1726           6504          -6991          -5994
   4684.00000000           -932           1431          -3319             14
   4688.00000000          -3078          -2927          11789            -27
   4692.00000000           1976           1194           6708           4904
   4696.00000000         -10251            548            906          -2095
   4700.00000000          -3631             50           3629          -3102
   4704.00000000           5538          -4733          -5474           3583
   4708.00000000          -1170           1629          -6623           7860
   4712.00000000           4716           -297            -67           4496
   4716.00000000          10814           3908          -1936          -2245
   4720.00000000           4275          -3242           2550            585
   4724.00000000          -1725           1437          -4061         -10074
   4728.00000000          -4105           3293            971          -1247
   4732.00000000          -9253           3189           -423           6660
   4736.00000000           3363          -3140          -1545           4139
   4740.00000000            970          -6021          12888           1585
   4744.00000000          -1027          -4126           1848           3976
   4748.00000000           6675           2569          -4262           6873
   4752.00000000           4419           4484          -4252           1451
   4756.00000000           9864           7139           3001           6276
   4760.00000000           7612           4240           8845            765
   4764.00000000          -2540           -798           1402          -4161
   4768.00000000           4242           5582           2274          -6235
   4772.00000000          -3441          -6171          -7372            375
   4776.00000000           4962          -3161           3174           8901
   4780.00000000           1151           -351           2272          -4983
   4784.00000000           -914           2983           1988           6362
   4788.00000000          -1769           7970            183          -2657
   4792.00000000           3454           3499           5208          -3046
   4796.00000000          -1569            696           2260          -3967
   4800.00000000          -6174            400           3980          -4618
   4804.00000000          -6049          -4930          -2316          -2278
   4808.00000000           1895          10885           -774          -2662
   4812.00000000           5517           5085            215           6819
   4816.00000000          -2049           -324           8365          -5175
   4820.00000000           1978          -3348          -4173           5342
   4824.00000000           -928           -519           -525          -7202
   4828.00000000          -2019          -1725          -6624          -9420
   4832.00000000           5838           -930           8000           1759
   4836.00000000           3203         -11363          -1991          -3267
   4840.00000000           4847          11648           1990          -6421
   4844.00000000           3331           4979           4200           1350
   4848.00000000           4820            787           9160          -4064
   4852.00000000           2223          -1227          -2953           2491
   4856.00000000          -2119           6400           5284          -1707
   4860.00000000          -2771           -766           3224          -4675
   4864.00000000           5875          -2756           1434         -12492
   4868.00000000           -644           2930           1619           3285
   4872.00000000          -4124           4448          -2912          -8930
   4876.00000000           3924            -81           6914          10748
   4880.00000000          -2073            686           1014          -3244
   4884.00000000           -645           4617          -1143          -1841
   4888.00000000            370           4227           3497          -6531
   4892.00000000           3015           5685          -3027           6924
   4896.00000000           1418           3119            655          -5344
   4900.00000000          -2510            326           5126           -891
   4904.00000000           -971          -8218           1581          -5307
   4908.00000000           5244          -1057           4621           1557
   4912.00000000          -3864           5041           5676          -2771
   4916.00000000          -1161           1867            -86            -98
   4920.00000000           -614           3796          -5184           4846
   4924.00000000           1205          -5479          -2219           4981
   4928.00000000           -231          -5410           5828             -2
   4932.00000000          -3595           5326          -1216          -4530
   4936.00000000           6194            886           1991            324
   4940.00000000          -1173            395           3157          -2788
   4944.00000000          -3442           1337          -3576            415
   4948.00000000          -4242           8348          -1060           -700
   4952.00000000          -4040           -875           3829           1728
   4956.00000000           8303          -4232           7964           2857
   4960.00000000          -3428           4152          -1562           2826
   4964.00000000          -2880           4286           1547          -4772
   4968.00000000            797          -3071           2398          -2985
   4972.00000000            915           3285           2815           6626
   4976.00000000          -1507           7726           7605           -155
   4980.00000000           -684          -2913           6354           2237
   4984.00000000           8487          -1570           7790           1909
   4988.00000000           1637           8058           7341           6812
   4992.00000000          -6403          -1170            -94          -3784
   4996.00000000          -5743             37            921           6012
   5000.00000000           1246            893           -833          -2484
   5004.00000000           4939           1253          -3526           7674
   5008.00000000            -97            913           -189           2566
   5012.00000000           6940          -1026           2061            763
   5016.00000000          -1436           3949          -4507           1670
   5020.00000000          -3735           -581           -447           3181
   5024.00000000           3084          -3743           -335           3885
   5028.00000000           7202          -1505           1475            574
   5032.00000000          -2138            661           2073           3652
   5036.00000000           3166            262          -3360          -1513
   5040.00000000          -5004            241           7443           1810
   5044.00000000           9036          -4571           2415           1916
   5048.00000000           -210          -6813          -1797           -599
   5052.00000000            682           2764           4592           1069
   5056.00000000            233           -492          -1015          -3792
   5060.00000000           -397           1377            -72          -4813
   5064.00000000           3164           1747           1061            389
   5068.00000000           1651            480           2184           3742
   5072.00000000           2031             33           6627          -4854
   5076.00000000          -1358           6567            524          -3279
   5080.00000000           -118           1207           -676           3403
   5084.00000000          -1371           2942           1460          -4511
   5088.00000000           -674          -2982           1995          -4854
   5092.00000000           1721            120          -1240           3430
   5096.00000000           -587           -690           4651            804
   5100.00000000          -2210          -3295          -2371            892
   5104.00000000           2226          -5009          -8382            750
   5108.00000000            304           1501          -7459          -4869
   5112.00000000          -1904           4675          -2929           7008
   5116.00000000           -897           3161          -6731           1571
   5120.00000000          -2766          -1422           2483            728
   5124.00000000          -6343           6126            741          -1522
   5128.00000000           1300           4918           -814          -6048
   5132.00000000          -1541          -2263          -1428          -1524
   5136.00000000          -4158          -2975            885          -3237
   5140.00000000            -82            233          -1734           -482
   5144.00000000            805           2454          -1052           4424
   5148.00000000           -990           4080           4773           3708
   5152.00000000          -1047           -788           6863          -1831
   5156.00000000          -2811            418           7586           -583
   5160.00000000           1464           1455          -3382          -7104
   5164.00000000          -1146          -1099           2033          -2126
   5168.00000000           -587          -1486           -570             82
   5172.00000000          -1551            301          -5496           3028
   5176.00000000          -3274           4324          -1380            270
   5180.00000000          -3421           1584           1566          -3573
   5184.00000000            -15            447          -6081             42
   5188.00000000          -6717           -603           1269           2160
   5192.00000000           5952          -5941           -716           2885
   5196.00000000          -3866            860           2494           2576
   5200.00000000            889           1794          -4162          -3286
   5204.00000000            312           2437           1811          -2550
   5208.00000000            471           -837           2242           2694
   5212.00000000            540          -3291            329          -2356
   5216.00000000            234           2910           1790           3295
   5220.00000000           4894           3441            970          -3337
   5224.00000000          -1251          -3118             38           1474
   5228.00000000           4166            497           -512          -3485
   5232.00000000            555          -2816           7708           2360
   5236.00000000           1387            431           -178           2714
   5240.00000000             14           6996            560           1782
   5244.00000000           1449          -3603           4212           2057
   5248.00000000          -3763           2087          -2155            -74
   5252.00000000           1354          -3960           1147           3743
   5256.00000000          -4852           2296          -1397            387
   5260.00000000             65          -6501          -2299          -3854
   5264.00000000             -6          -3541          -1261           4380
   5268.00000000          -1261           -599          -1570           3703
   5272.00000000           2730           2663          -1132           1863
   5276.00000000          -2726            480           -541          -2774
   5280.00000000          -4777          -2558            268           -488
   5284.00000000           -615          -4733          -5287          -3123
   5288.00000000          -1089          -1899           2875           2459
   5292.00000000          -1656          -1501            506           1890
   5296.00000000           -254          -2872            176           -735
   5300.00000000           2827           3718           1269          -4417
   5304.00000000           -779            718           1071          -2182
   5308.00000000           4736            234            617          -1881
   5312.00000000           -374           1758          -4610          -2242
   5316.00000000           1590            204          -2384          -1942
   5320.00000000           -811           2608          -1295          -2809
   5324.00000000           1695            647           3080           -649
   5328.00000000           -845          -1564           1834           3358
   5332.00000000          -4457          -2446            880             81
   5336.00000000          -3179           -859            385          -3297
   5340.00000000            965           2244           2754           3418
   5344.00000000           -337          -1049          -1151           1245
   5348.00000000          -2045           -384             27           -168
   5352.00000000           2737          -1369           1674          -1348
   5356.00000000           1417           2169           4691           -589
   5360.00000000            273           1568           2541            770
   5364.00000000          -2090           1851            473          -1955
   5368.00000000          -1836           1006          -1590           1845
   5372.00000000          -1488          -2717          -2369          -2437
   5376.00000000            529            237           2594          -1927
   5380.00000000           3410          -5490          -3103           1419
   5384.00000000            977            322            720          -1901
   5388.00000000          -2160          -1392          -3995          -4538
   5392.00000000          -1249          -1842            925           2302
   5396.00000000            -86           -772          -1024          -1975
   5400.00000000           1801          -2791          -1158           2893
   5404.00000000          -1613          -2604           1256          -3954
   5408.00000000           1980          -1801          -2664            -35
   5412.00000000          -2146           -501           2430          -1921
   5416.00000000            620          -1236            302           1930
   5420.00000000           1572           -757           -887          -2261
   5424.00000000           -683           -908          -1657           2227
   5428.00000000           -659          -2715           -982           -722
   5432.00000000            605           1956            554          -1094
   5436.00000000           3346            528           2365           2291
   5440.00000000           -514            252          -2126           1023
   5444.00000000           1280          -1024            672            622
   5448.00000000           3447           3533          -1486          -1001
   5452.00000000           -301           -772           1954            290
   5456.00000000           3154           1002           -268           -209
   5460.00000000           1245            184            404          -1202
   5464.00000000           -725           5127           -218          -1099
   5468.00000000            677           2682            -94          -1519
   5472.00000000           1102          -1034             52          -1315
   5476.00000000           1562          -1271          -3160           1007
   5480.00000000           -816          -1360           1032            415
   5484.00000000          -1402           -529          -1467           -852
   5488.00000000            726           3117          -1753           7467
   5492.00000000           1183           2083           -346           2269
   5496.00000000           -558          -1450            887          -2335
   5500.00000000          -2584          -1512           -483           2736
   5504.00000000          -1582          -2500          -3194            393
   5508.00000000          -2996           -390           1804           2784
   5512.00000000           1363           -919           -316          -1222
   5516.00000000          -2526           1498            190          -1233
   5520.00000000            621           3240           -413          -1572
   5524.00000000           2955          -1529          -3107           -138
   5528.00000000           1723          -2061           -429           1568
   5532.00000000          -2339          -1974          -1074           5740
   5536.00000000            659          -1771            330           1368
   5540.00000000           1046            -66          -3184           -841
   5544.00000000           2926           2597            816            360
   5548.00000000           2672             99          -1235           -609
   5552.00000000          -1728           2585          -2015           -568
   5556.00000000           1082            653            452          -1724
   5560.00000000           2943          -1971            669            758
   5564.00000000          -2235            174          -1504           -355
   5568.00000000           1441           -835          -1104           -470
   5572.00000000           -305          -1942            668          -1298
   5576.00000000          -3115           1665          -5482            678
   5580.00000000          -1427           1978           1141          -3110
   5584.00000000          -1535           -736          -1743            582
   5588.00000000            658            901           -122           1712
   5592.00000000             64            802            694          -2392
   5596.00000000            944           2774           1381           -601
   5600.00000000            923           -748           4077          -1777
   5604.00000000            629          -1139            902           1495
   5608.00000000            345          -1477           -989           -951
   5612.00000000            899           -227           -870           4194
   5616.00000000           -702            652           -424           -158
   5620.00000000          -1398            295          -1965          -2058
   5624.00000000           -292            862           -808           -259
   5628.00000000           -879          -1394           1049            205
   5632.00000000          -1101          -1058          -2915           -945
   5636.00000000            333           2463          -2861            -27
   5640.00000000           -139           1786          -2114           1555
   5644.00000000           -340             69           2848           -858
   5648.00000000           3030          -3071             51           -223
   5652.00000000           -334           3921             30           2583
   5656.00000000           -124           -229             59             23
   5660.00000000          -1218           -195           1370          -1371
   5664.00000000           -470           -507           -509           1837
   5668.00000000          -1639           2104           -309          -1237
   5672.00000000          -2289            136           2857          -1862
   5676.00000000          -1053           -334          -1196          -1290
   5680.00000000          -2094            252           2298           1091
   5684.00000000           -934           -748           -686           -561
   5688.00000000            113          -1805           2148           -498
   5692.00000000           -448           -488            106           1137
   5696.00000000          -1774            -52            138          -1401
   5700.00000000          -1121          -2800           -946           -760
   5704.00000000           3795           -750            623          -2905
   5708.00000000            859           1729          -1071            -48
   5712.00000000           2159           1803          -2775          -2471
   5716.00000000            322             99           2150            -55
   5720.00000000          -1095            175           1312           -112
   5724.00000000          -3641            255            293            995
   5728.00000000           -732           1471           -368           1945
   5732.00000000           -280          -1669          -1109           1551
   5736.00000000            -96          -1029           2106           2338
   5740.00000000           -698           -649           -148           -276
   5744.00000000           -151           1481          -2195            864
   5748.00000000          -1569           -388            497             21
   5752.00000000            657             47            452           2008
   5756.00000000            160           -977           1795          -1314
   5760.00000000           -210           1782            642           -169
   5764.00000000          -2053          -2168           1269            810
   5768.00000000           1497           -145           1011           -578
   5772.00000000          -1887          -1084            192          -1236
   5776.00000000          -1232            -46            214          -2444
   5780.00000000            853           -111            249           -797
   5784.00000000            692           -781           -338          -1844
   5788.00000000           -884           1192           -945           2786
   5792.00000000           1067            486           2187            278
   5796.00000000             52           -569           1692           1266
   5800.00000000            796           1365           -518             52
   5804.00000000           1274          -1160          -1826           -824
   5808.00000000            384          -1241            -59            359
   5812.00000000            459            565            245            -66
   5816.00000000           1597           1738           1343           1686
   5820.00000000           -875            -12           1157          -1877
   5824.00000000           -555            993           -221              6
   5828.00000000           -370            312           2055             67
   5832.00000000            643           1427             69          -2315
   5836.00000000            -76           1086            772          -1598
   5840.00000000          -1922            134           -415            680
   5844.00000000           2038           1390           1445           -141
   5848.00000000          -2266            979           1629           -224
   5852.00000000            546            -21           -324          -1332
   5856.00000000           -516          -1385             92            824
   5860.00000000           -758            198           2185            662
   5864.00000000           1620           -941           -859            174
   5868.00000000           -605           -186           1599           -944
   5872.00000000           -792          -1211           -322            544
   5876.00000000           1659            529            795           -772
   5880.00000000          -2712          -1205          -2318           -978
   5884.00000000            -67            976           1276            405
   5888.00000000            999          -1803            -17          -1275
   5892.00000000           -293          -1677          -1145            304
   5896.00000000           -817            659           1898           1565
   5900.00000000           -106           -141           -158           -494
   5904.00000000           -151           1220           2265            -83
   5908.00000000           -641             28           2261            601
   5912.00000000             62             80            801            701
   5916.00000000           -123            204            338             52
   5920.00000000          -1205            530          -1808           -652
   5924.00000000            750            862           -928          -1446
   5928.00000000          -1373           -934            972           1258
   5932.00000000            459           -940            333            301
   5936.00000000           -444           -233           2429           -512
   5940.00000000            427           1513            848            972
   5944.00000000          -1262           1242          -1276          -1070
   5948.00000000           1089           -608          -1249           -261
   5952.00000000           -985            807            331           -341
   5956.00000000            894           -188           1442           -674
   5960.00000000          -1090           -307            404            433
   5964.00000000            113           -649            398          -1437
   5968.00000000           1201           -943            678            -14
   5972.00000000           2095           1176            769          -2032
   5976.00000000           1338           -690           -720           -190
   5980.00000000           -103          -1857            804          -1088
   5984.00000000           -775           -676            383            203
   5988.00000000           1357           1137            391            268
   5992.00000000           1128            335             51          -1389
   5996.00000000           -655            310           -263           1039
   6000.00000000           -328           -189            944           -158
   6004.00000000            657            159          -1658            247
   6008.00000000           -297           -451           1928           -463
   6012.00000000           1789           -751           -608           1491
   6016.00000000            -68            685          -1721           -335
   6020.00000000           -421          -1004           -546           1735
   6024.00000000           -343            992          -1188           -409
   6028.00000000            360            191           1131           -706
   6032.00000000           -834            680            141            606
   6036.00000000          -1657           -577            637           1074
   6040.00000000           -944           1102          -1345            -23
   6044.00000000           1780           2871            -70            943
   6048.00000000           -174           2223          -1444            171
   6052.00000000            885           -983            751           -797
   6056.00000000          -1056             53            891            776
   6060.00000000          -2125           1147            281           -533
   6064.00000000            970            948            445           -793
   6068.00000000             51            320           -378           -312
   6072.00000000           -476           1556           1549            375
   6076.00000000           -867             -9           -457           -770
   6080.00000000           -584            711            679            391
   6084.00000000            224           -208           1162            235
   6088.00000000            -29           -812           -864           -359
   6092.00000000            237            148            535            304
   6096.00000000            145            660           1609           -812
   6100.00000000            -17            166           -995           2313
   6104.00000000           1342           -311            655           -367
   6108.00000000           -202            603            596           1494
   6112.00000000            337          -1483            867           1327
   6116.00000000            790            298          -1220            -98
   6120.00000000            315            766            112           -163
   6124.00000000            690           -254          -1221            990
   6128.00000000           -453            442           -712            499
   6132.00000000           1572            460            682           -824
   6136.00000000           1055           -907            207           -109
   6140.00000000          -1800           -652           -456            521
   6144.00000000          -1615           -345           1195            536
   6148.00000000          -1856           -341            599            698
   6152.00000000            172            656           -230            696
   6156.00000000           1197           -381           -748            723
   6160.00000000           -239           -399            379           -171
   6164.00000000            682           -410           -576           1537
   6168.00000000          -1459           -549            284            240
   6172.00000000          -1640            370           2351           -117
   6176.00000000            816            184           -423           1438
   6180.00000000           -133            219            135            116
   6184.00000000           -125           -399           -263           1961
   6188.00000000            225           -542           -607           -172
   6192.00000000             51           -494            425            341
   6196.00000000           -456            340          -1248           -576
   6200.00000000             54            944           -830            346
   6204.00000000           1215            395            678          -1144
   6208.00000000           -140          -2348             46            285
   6212.00000000            974          -1574           1959          -1763
   6216.00000000           -924            329           1540           -141
   6220.00000000            178           -772           -635           -837
   6224.00000000            561           -285             51          -1401
   6228.00000000           -170            688             23            401
   6232.00000000          -1118            871            360             44
   6236.00000000            382            565          -1135            -24
   6240.00000000           1916          -1602           -756            242
   6244.00000000           1493            564           -845           1020
   6248.00000000            -38           1154           -678            373
   6252.00000000           -545           1006           1420            769
   6256.00000000           -363           -607           -643           1226
   6260.00000000            369            199           -900           -421
   6264.00000000            -82            411           -176           -553
   6268.00000000             71           -148           1608            -38
   6272.00000000          -1075            553            232            488
   6276.00000000          -1320            366           -958           -783
   6280.00000000           -805           -552            480            308
   6284.00000000           -153            156            348           -631
   6288.00000000           -137            461           -119            711
   6292.00000000            702            700           -243            873
   6296.00000000          -1202            -69            181           -570
   6300.00000000             23            266            269            581
   6304.00000000          -1078           -248             57            381
   6308.00000000            216           1251           1100            330
   6312.00000000           -805            131           -134            673
   6316.00000000            475           -396           -304           -157
   6320.00000000           -830           -753          -1134           -424
   6324.00000000           -668            663           -194            163
   6328.00000000            -49            341            455            -73
   6332.00000000            114            422           -418            456
   6336.00000000            335            614           -185            137
   6340.00000000           -588            350            428          -1766
   6344.00000000            303            151            484            493
   6348.00000000           -378           -243            233           -350
   6352.00000000           1028            532           -728            448
   6356.00000000           1409           -972           1238            653
   6360.00000000            652             -2           -134           1248
   6364.00000000            470            357           -290            184
   6368.00000000           -276            620           -173           -324
   6372.00000000            661            722           -153           -186
   6376.00000000            394           -397           -657            663
   6380.00000000           -819            408            747            507
   6384.00000000          -1900          -1269           -283            127
   6388.00000000           1062            613             77          -1151
   6392.00000000             54            204            734            857
   6396.00000000           -520          -1156           -444           1311
   6400.00000000            361             60            459            885
   6404.00000000           -303            -24            598            301
   6408.00000000            377           -226            183           -518
   6412.00000000           1140           -289           -717            286
   6416.00000000           1061             18            292           1245
   6420.00000000            572            -26            415            781
   6424.00000000            740             33           -468            645
   6428.00000000            987            341           -197            522
   6432.00000000            342           -273            392            -70
   6436.00000000           -155           -108            558           -358
   6440.00000000            620            103            193            645
   6444.00000000           -335            269           -133            828
   6448.00000000           -316            -28           -540             65
   6452.00000000           -274           -914             41            357
   6456.00000000           1420            -32           -642            709
   6460.00000000            403           -378             66            434
   6464.00000000            437            -24           -930            360
   6468.00000000            940           -876           -472             11
   6472.00000000            154           -318           -781            246
   6476.00000000             88           -392           -446           -179
   6480.00000000           -161           -800             56            -65
   6484.00000000           -110           -148            -86           -489
   6488.00000000            495           -376            622            463
   6492.00000000            -37            210           -136            347
   6496.00000000           -325           1165           -433             37
   6500.00000000            557           -983            464            -14
   6504.00000000           -271             43           -322             -9
   6508.00000000            310            470            590            120
   6512.00000000            157           -440            256             38
   6516.00000000           -922            781            605           -706
   6520.00000000            492            637          -1052            269
   6524.00000000           1324            778            -27           -120
   6528.00000000            698            403            -76            149
   6532.00000000            997           1435           -176           1139
   6536.00000000           -155            554           -240             12
   6540.00000000             92           -646           -284            113
   6544.00000000           -121            460            434           -275
   6548.00000000           -432           -767            213           -372
   6552.00000000           -199             94            507           -235
   6556.00000000             16           1135            532           -193
   6560.00000000           -541           -884              9            783
   6564.00000000            141           -269            194            897
   6568.00000000              2           -234            184           -762
   6572.00000000           -351             50           -501            481
   6576.00000000           -122            307            309           -168
   6580.00000000           -378           -790            -84           -611
   6584.00000000           -709           -155            182            126
   6588.00000000          -1116            -92            324             73
   6592.00000000           -244            412            483            819
   6596.00000000            129            634            -30            286
   6600.00000000            -92            566            594           -149
   6604.00000000            347           -129           -314            767
   6608.00000000            630             37            202            982
   6612.00000000           -142            -40            520           -332
   6616.00000000           -332           -231            427            474
   6620.00000000            300            786           -246            118
   6624.00000000           -403            312            383           -319
   6628.00000000            345           -258            440           -166
   6632.00000000           -461           -680            394            473
   6636.00000000            633           -142           -312           -332
   6640.00000000           -764            637            521            210
   6644.00000000            466             39            447           -323
   6648.00000000            331           -441            -58           -242
   6652.00000000             96            870           -127            256
   6656.00000000           -207           -282           1094             66
   6660.00000000           -390            832            548            788
   6664.00000000            309            355            791           -275
   6668.00000000           -451            393            918            161
   6672.00000000           -302           -142            177            252
   6676.00000000           -209            967            108           -127
   6680.00000000           -752            529            236           -468
   6684.00000000            208           -303            130            813
   6688.00000000            254            289           -605            342
   6692.00000000            152            492            370            933
   6696.00000000            359           -424            284            299
   6700.00000000             79            132            215            -74
   6704.00000000            -44           -349           -318           -392
   6708.00000000           -315           -109            305            192
   6712.00000000            105            374           -369            -46
   6716.00000000            611            276           -161            254
   6720.00000000            290            -42           -301            368
   6724.00000000            -58            -46            224            394
   6728.00000000             36            -15            397            -96
   6732.00000000            -87            262            223             37
   6736.00000000            634           -420            120           -161
   6740.00000000           -246            -60            256            119
   6744.00000000            435            287            348           -333
   6748.00000000            620           -717           -437           -129
   6752.00000000           -165             15            910            299
   6756.00000000            271            335           -151            354
   6760.00000000            231           -116            806             54
   6764.00000000            174           -374           -116             95
   6768.00000000            410            -83            165            723
   6772.00000000           -226           -159            348            137
   6776.00000000           -639           -115            278           -182
   6780.00000000           -189           -265            201             26
   6784.00000000            -31             94           -292             14
   6788.00000000           -483            558            114           -156
   6792.00000000             89            113            143           -547
   6796.00000000             93           -302            586            527
   6800.00000000            355           -129            360            498
   6804.00000000            442           -315           -165           -153
   6808.00000000            180             98           -211            -39
   6812.00000000             76            505           -393            483
   6816.00000000             -3            554            -57            371
   6820.00000000             36             49            387           -596
   6824.00000000            -46           -362            217            -50
   6828.00000000            815             18           -456            297
   6832.00000000            437           -221            294            -16
   6836.00000000           -504            114             70            426
   6840.00000000              0            357           -630           -182
   6844.00000000           -292            210              9            318
   6848.00000000           -309            179            321            115
   6852.00000000            315            496            -45            169
   6856.00000000           -155           -777             -2           -477
   6860.00000000           -139             57           -375            233
   6864.00000000            307           -298            453            -70
   6868.00000000            -21           -701            125            326
   6872.00000000              4           -130             58            215
   6876.00000000           -159            -61            567            -35
   6880.00000000           -138              3           -420            288
   6884.00000000            255           -214            -43           -426
   6888.00000000            268            107            135            161
   6892.00000000            126           -739            -63             78
   6896.00000000            120            636            661              9
   6900.00000000            184            561            141           -275
   6904.00000000            -15           -245            185            330
   6908.00000000             -4            530            280           -406
   6912.00000000              2           -151            444             32
   6916.00000000            152            251           -219           -308
   6920.00000000             60           -439           -519            405
   6924.00000000            -54            385            -68            242
   6928.00000000            169            254             79            -77
   6932.00000000            346            207            -66            354
   6936.00000000           -316           -227            232             92
   6940.00000000            108            428           -138            343
   6944.00000000             50           -133           -204            466
   6948.00000000            186            132            208            235
   6952.00000000            266             88             49            361
   6956.00000000            133            370             48           -337
   6960.00000000            789           -184             32           -199
   6964.00000000            115            -56           -179            521
   6968.00000000            109            199           -184           -117
   6972.00000000           -194           -168             24            325
   6976.00000000              3            -86           -134            287
   6980.00000000             51           -162           -272            203
   6984.00000000           -299            -66             62            137
   6988.00000000            215            236           -121            -63
   6992.00000000           -167             86            125           -184
   6996.00000000            104            497           -190            499
   7000.00000000           -294           -310             93             71
   7004.00000000            -62           -103           -310             -4
   7008.00000000            182           -237           -323            103
   7012.00000000            247           -157            133            147
   7016.00000000             54           -191           -274           -326
   7020.00000000            216            368            104            510
   7024.00000000            -55           -146            315            -65
   7028.00000000            419           -347            227            210
   7032.00000000           -341             68            188           -345
   7036.00000000             -2            112           -199            556
   7040.00000000           -167             98            -16           -208
   7044.00000000            362           -366            -18            214
   7048.00000000            -22           -102           -144            -15
   7052.00000000            149            171           -185            -71
   7056.00000000           -103             -2           -194            393
   7060.00000000           -345             23            242           -283
   7064.00000000           -181            210             22           -103
   7068.00000000           -172           -116             -9            -26
   7072.00000000            -29            213           -203            -57
   7076.00000000             13           -100            -49           -327
   7080.00000000            357           -279            250            -91
   7084.00000000           -185            175            105            173
   7088.00000000            211            270           -275            -34
   7092.00000000            291            314            -87            377
   7096.00000000           -188             12             33             58
   7100.00000000            -46            -92           -152            151
   7104.00000000            112           -440            143             55
   7108.00000000             61            267            -69           -414
   7112.00000000             46            -52            262           -271
   7116.00000000           -785           -313            263           -262
   7120.00000000            -44             85            273           -100
   7124.00000000           -274             73            182             21
   7128.00000000            -92           -305            302           -240
   7132.00000000           -249           -308             49            289
   7136.00000000            120             61           -199            388
   7140.00000000            194            118           -178            297
   7144.00000000           -256           -276           -129           -150
   7148.00000000            340            -12           -246            -58
   7152.00000000            103             53            166            -39
   7156.00000000            -58           -383           -103             56
   7160.00000000            203            313           -246            -10
   7164.00000000            299            -21           -278             54
   7168.00000000            385            -73             92           -304
   7172.00000000            147           -165            -19             51
   7176.00000000            284             64            -16           -204
   7180.00000000            -98            -51            175           -194
   7184.00000000           -425           -278             59            153
   7188.00000000           -299            241             -4             85
   7192.00000000           -110             80           -211            -56
   7196.00000000            251              0            -20            251
   7200.00000000           -310            360             91            -90
   7204.00000000              2            -53             71            -29
   7208.00000000            224           -123            119           -115
   7212.00000000           -175            -16              3            -18
   7216.00000000             81             58           -172            334
   7220.00000000            237            -32            -29           -156
   7224.00000000             24             51            148            329
   7228.00000000             42            184           -157             79
   7232.00000000             89            -86            340            -17
   7236.00000000           -174             39             31            -43
   7240.00000000            238             11           -428            -70
   7244.00000000            -86            -43           -255             93
   7248.00000000             57            273           -182             89
   7252.00000000            -35           -100           -220            -47
   7256.00000000            -43            -95            167            130
   7260.00000000            147           -240            168            -93
   7264.00000000             95           -214           -108           -281
   7268.00000000           -234           -287            103             85
   7272.00000000            -80           -353            196             62
   7276.00000000           -171            184              9            -42
   7280.00000000           -200           -144            278           -169
   7284.00000000            127            -34            155            355
   7288.00000000           -189             88           -494           -403
   7292.00000000            294            -23           -150           -225
   7296.00000000           -192           -137             19            167
   7300.00000000           -115              3            141             28
   7304.00000000             -6            -22             -7            142
   7308.00000000           -118           -231           -217             79
   7312.00000000           -467           -235           -171            -21
   7316.00000000           -370             91             41           -296
   7320.00000000             69            -28             22            101
   7324.00000000            -58           -120             -1             91
   7328.00000000           -114            -89            -57           -223
   7332.00000000           -527           -210            -24            -16
   7336.00000000             45             25           -232             70
   7340.00000000            159           -127            -92            -33
   7344.00000000            -67           -345            -20            105
   7348.00000000            -27           -162           -109            -97
   7352.00000000           -102            -81           -280           -152
   7356.00000000            -10            -44            233            -59
   7360.00000000             34            175             -6            144
   7364.00000000           -171           -102            -72           -112
   7368.00000000           -156           -207             36            410
   7372.00000000            122           -270            -26            186
   7376.00000000             -7            164            -94           -307
   7380.00000000             92            147             84            244
   7384.00000000           -160           -156            -50           -122
   7388.00000000             37            196            -42            144
   7392.00000000            -37            -42           -210           -234
   7396.00000000            148           -159            169            161
   7400.00000000           -104           -150            -78           -130
   7404.00000000            283             22           -159           -102
   7408.00000000           -102            -19           -114            -63
   7412.00000000            -62             44            -34            117
   7416.00000000            185           -102           -168            -96
   7420.00000000            107            -43           -311           -171
   7424.00000000           -132             27           -119            176
   7428.00000000           -324            171           -156            -89
   7432.00000000           -326            -50            -18           -102
   7436.00000000            -20            114             13           -192
   7440.00000000           -122            335             -3            -47
   7444.00000000           -217            130             18            170
   7448.00000000           -314            -62            362             14
   7452.00000000            -26            -60             83            -71
   7456.00000000             22             81            187            -84
   7460.00000000           -127           -147            290             -2
   7464.00000000           -504            -90            201             13
   7468.00000000           -188           -248           -165            207
   7472.00000000             14             58             78            -86
   7476.00000000            -55           -105            146            -25
   7480.00000000           -197             94           -227           -154
   7484.00000000           -111           -235            -62           -163
   7488.00000000            160           -127            -78           -102
   7492.00000000             22           -146           -102           -213
   7496.00000000            194           -201           -431           -151
   7500.00000000             45             66           -163            -44
   7504.00000000           -151             84           -149            101
   7508.00000000           -165            -34            106             66
   7512.00000000            -42             13            -39             96
   7516.00000000             26              3           -170            -31
   7520.00000000            -49            -25            -37              3
   7524.00000000             -3             29             85           -272
   7528.00000000             45           -118            -93            -81
   7532.00000000             32            -77            -40             59
   7536.00000000            -42            -85           -261           -130
   7540.00000000            -27           -189           -132            110
   7544.00000000           -174           -187           -136            119
   7548.00000000            139             54            -18            -83
   7552.00000000             23             81             24           -109
   7556.00000000           -213            -64           -115           -248
   7560.00000000            149            215            108            -10
   7564.00000000            118            -91             -7             68
   7568.00000000           -164              9           -141           -119
   7572.00000000           -131            -12            -90           -107
   7576.00000000            -59             30            134             -6
   7580.00000000             75            157           -133            -42
   7584.00000000             65            -53             36             29
   7588.00000000            135            -58            -86           -142
   7592.00000000           -151            -63            -41            -68
   7596.00000000            -93           -268           -164            -66
   7600.00000000            -85           -113            142           -192
   7604.00000000           -192             11           -156           -152
   7608.00000000              6            -48             82            -92
   7612.00000000             11           -133            -26           -130
   7616.00000000           -167             83            -56            -51
   7620.00000000             24             41             75             69
   7624.00000000            -96            228            -72            -36
   7628.00000000            -78            -93            153           -192
   7632.00000000           -165            -21             42            -65
   7636.00000000            106           -123           -277             13
   7640.00000000             45            144            -67            -43
   7644.00000000             -1            250           -291             -5
   7648.00000000            -19            -51           -101           -102
   7652.00000000             64             90            -36            165
   7656.00000000             23            -55            -54            168
   7660.00000000            -57            -34            -48           -136
   7664.00000000           -174           -128           -121             26
   7668.00000000            -77             31           -113            188
   7672.00000000           -151            -18           -112            142
   7676.00000000            111             32            107            -28
   7680.00000000             41              2              2             -6
   7684.00000000           -245            -24            -19             66
   7688.00000000             43             69              7           -203
   7692.00000000           -125           -164            -64            107
   7696.00000000             63            126              6            -43
   7700.00000000             73            -81            -58            137
   7704.00000000           -117            113             43           -168
   7708.00000000           -128            251            -73            -89
   7712.00000000           -145             66            -30            -97
   7716.00000000            -33            -85           -110            -42
   7720.00000000             69            -28            210            -16
   7724.00000000            195            -79           -178             39
   7728.00000000           -138           -207             53             32
   7732.00000000           -245            -67             40             41
   7736.00000000             64             91             13            -59
   7740.00000000            -31            -60            -19            -37
   7744.00000000            -14              9             17           -107
   7748.00000000           -148             71           -194            -66
   7752.00000000           -116            -44           -221             42
   7756.00000000             64             97            -13            -19
   7760.00000000            -57           -242             31             28
   7764.00000000            162             66             -4           -201
   7768.00000000            -89             12            -29            -28
   7772.00000000             22             33            -65            -31
   7776.00000000            -50            -77            213            -43
   7780.00000000             64            -18           -209           -108
   7784.00000000            112             99             11              2
   7788.00000000             46             68             10            -67
   7792.00000000           -100             60           -193           -224
   7796.00000000           -103             40           -112             75
   7800.00000000           -142            -66            123           -120
   7804.00000000             21              9            -11           -151
   7808.00000000            110             50             55              5
   7812.00000000             49           -102              8             -6
   7816.00000000            -75             48           -146            -47
   7820.00000000             82             90             31            -63
   7824.00000000            -18           -217             52           -133
   7828.00000000            -16            -37            -40            119
   7832.00000000           -116           -104            -37           -109
   7836.00000000            -65            -61            -80              7
   7840.00000000             34           -134              3             19
   7844.00000000             -7            -69           -144             47
   7848.00000000           -130             34             17           -112
   7852.00000000            -19            -46            -12            -51
   7856.00000000            -60           -144            121            -13
   7860.00000000             31             20            -10            -47
   7864.00000000            -22           -163             -3            -33
   7868.00000000            -88             14             -7           -142
   7872.00000000             -3            -55             -9            -35
   7876.00000000             84             11             34             69
   7880.00000000            -81             32            -70            -26
   7884.00000000            -99            -40            -44            -18
   7888.00000000            -39             16            -66             51
   7892.00000000             -4            -54             -4             18
   7896.00000000            -55             49            -81             24
   7900.00000000             98            -37            -79             69
   7904.00000000            -56             28             59            -97
   7908.00000000            -47            -46             71            -26
   7912.00000000             69             -3           -172             20
   7916.00000000            -26            -20            -96            -42
   7920.00000000           -125            156             52            -62
   7924.00000000             25           -107            -21             84
   7928.00000000              6             23            -45             12
   7932.00000000             46            -37            -22            -40
   7936.00000000           -201            -18            128            -52
   7940.00000000             36            -13           -137             24
   7944.00000000            -44            -44            -49            -86
   7948.00000000              2            -35            -65             28
   7952.00000000             76            -73            -38            -54
   7956.00000000             64            -10           -102           -160
   7960.00000000             12             60            -20            -63
   7964.00000000            -93             85             -8            -48
   7968.00000000            106           -146           -108            -91
   7972.00000000             10             65           -132            -37
   7976.00000000            -83           -120             23            -29
   7980.00000000            -61             81           -111             18
   7984.00000000           -123              1            -65            -48
   7988.00000000            -59           -103             74              2
   7992.00000000           -115            -43             41            -19
   7996.00000000            -13            -89             17             25
   8000.00000000             -2           -161           -142             31
   8004.00000000             87            -46             39             51
   8008.00000000             12              3            -15           -116
   8012.00000000            -62            -24            -59            -21
   8016.00000000             44             60             41            -76
   8020.00000000             10             70           -145            148
   8024.00000000              7             -6            -83            -92
   8028.00000000           -128            -13           -104            -12
   8032.00000000            -68             -9             23             90
   8036.00000000             42            -85            -83             21
   8040.00000000              7            -83            -50            -31
   8044.00000000           -178           -103            -10             22
   8048.00000000            -59             64             12            148
   8052.00000000             35             47            -33            -91
   8056.00000000            -27             40             22            -50
   8060.00000000             -0            -81            -64            -27
   8064.00000000            -69            118            128             57
   8068.00000000            -65            -55            -15            -66
   8072.00000000            -67            -48           -142            -56
   8076.00000000           -132            -58            -87             -5
   8080.00000000            -30             47             47             73
   8084.00000000            -29             30             29            -26
   8088.00000000            -17              2            -24             47
   8092.00000000            -81            -60             19           -111
   8096.00000000             46            -25             10            -62
   8100.00000000            -81            -35              8             67
   8104.00000000            -33            137            -28              3
   8108.00000000            -54            -51            -57             14
   8112.00000000             21            -49             11            -56
   8116.00000000            -56            -41            -34            -88
   8120.00000000             33             -3              5             64
   8124.00000000            -49             54           -137            -59
   8128.00000000           -117             24            -21            -23
   8132.00000000              0             61            -27            -46
   8136.00000000              0            -39           -156            -55
   8140.00000000             35            -66            -81            -64
   8144.00000000            -47             52           -121            -15
   8148.00000000             12            -49            -59             40
   8152.00000000             -5             -0             50            -49
   8156.00000000            -14             47             -4             -5
   8160.00000000            -58             67            -53            -50
   8164.00000000           -101           -134              5            -64
   8168.00000000            -68            -37           -113            -14
   8172.00000000            -26              6           -102              4
   8176.00000000            -67           -156             17              4
   8180.00000000            -57            -74            -61            -20
   8184.00000000            -40            -89            -13            -23
   8188.00000000            -19            -53            -74            -67
##PAGE=N=2
##DATA TABLE= (X++(I..I)), XYDATA
      0.00000000      631906244      460372884      380098385      531268837
      4.00000000      640379696      334813676     -349041039    -1085051681
      8.00000000    -1424449757    -1125148990     -208963789      944571883
     12.00000000     1760255467     1729231770      794029241     -548037978
     16.00000000    -1495687793    -1569677026     -878053508       25626377
     20.00000000      627613553      755589862      576050679      331605966
     24.00000000      193291066      156831060       84634733     -187352915
     28.00000000     -641465055    -1026865088     -944348931     -248487735
     32.00000000      771864440     1491854717     1433895988      601622670
     36.00000000     -508717815    -1279269883    -1341686422     -763612523
     40.00000000       77152430      711287130      861642112      565313094
     44.00000000      129144966     -127270938     -106664534        8867686
     48.00000000      -39271809     -322318224     -628347078     -646112261
     52.00000000     -223204359      460648355     1012307237     1061365438
     56.00000000      533029285     -311199410     -991108463    -1130743345
     60.00000000     -667113309       84951860      673291765      790950679
     64.00000000      483686250       41884157     -217641072     -203401451
     68.00000000      -52526156        3613807     -135766672     -363701150
     72.00000000     -442222664     -214841455      263427648      712060726
     76.00000000      819647303      455914984     -198988421     -769305212
     80.00000000     -914619111     -562049590       59341442      565277598
     84.00000000      693807975      438020883       35340732     -242683924
     88.00000000     -264363319     -117635852        8086177      -27435067
     92.00000000     -186588891     -292757012     -181604784      147964749
     96.00000000      504264811      625509948      382718724     -124069108
    100.00000000     -593046580     -743229981     -479685624       23901568
    104.00000000      467737219      603104090      403855804       41387025
    108.00000000     -237463074     -290528020     -155994979       -1101190
    112.00000000       30093206      -75023294     -180677894     -143150863
    116.00000000       73175729      344953102      467215532      313756052
    120.00000000      -60093204     -442825154     -590946654     -408056196
    124.00000000       -3432665      378349372      517514677      361178124
    128.00000000       43874472     -219413391     -284203923     -164094225
    132.00000000       -1006221       63305551        1615689     -102425617
    136.00000000     -115831879       16693843      223041419      344843261
    140.00000000      261200547      -17102413     -325138307     -468263207
    144.00000000     -338742332      -20968634      298435909      423868364
    148.00000000      306204925       44339305     -182353321     -253832411
    152.00000000     -163801843      -13755756       70349626       45670999
    156.00000000      -41891460      -84704346      -14113189      133271123
    160.00000000      241858355      203937569       10894270     -224917810
    164.00000000     -351894695     -275389676      -37348900      216037179
    168.00000000      335409818      259017511       53233607     -146032721
    172.00000000     -221027381     -155922378      -21051770       73789399
    176.00000000       70346107       -7609697      -63562396      -35260270
    180.00000000       74534032      169450499      163373903       29846093
    184.00000000     -149426594     -260877620     -223037821      -54029215
    188.00000000      148905798      264635019      226390460       66044205
    192.00000000     -111711509     -199662707     -154874420      -28199505
    196.00000000       77235060       85199002       18979424      -50428273
    200.00000000      -47823780       29768203      116209466      128662322
    204.00000000       44289312      -98214088     -198137628     -186329469
    208.00000000      -56932416      112557220      220407010      194931483
    212.00000000       63639596      -93809484     -172771263     -137481602
    216.00000000      -32152219       62445041       86700685       38360088
    220.00000000      -26379362      -40553575         558976       68701360
    224.00000000       92383075       43413795      -57152393     -145143898
    228.00000000     -149056627      -56364252       81326549      178232718
    232.00000000      166635168       59969468      -73428787     -153608367
    236.00000000     -134175243      -43459435       50482917       89390209
    240.00000000       61086581        2992073      -35940953      -21315975
    244.00000000       25348123       57467616       38106386      -31977527
    248.00000000     -100692980     -115166781      -50439420       55298086
    252.00000000      138053000      139667350       59713450      -54819278
    256.00000000     -130702002     -125604424      -51073353       39675330
    260.00000000       88608281       72320880       17001806      -29181512
    264.00000000      -34493953       -1252746       33513519       31466147
    268.00000000       -9781257      -62537308      -84010676      -44059187
    272.00000000       35231739      103585320      114646418       58279242
    276.00000000      -38395405     -109480299     -113901333      -54044578
    280.00000000       31901946       83578579       75833383       26539163
    284.00000000      -23047930      -40638336      -20519221       13208934
    288.00000000       28221796        5814366      -35036941      -62164137
    292.00000000      -41106194       18820808       77552502       93005143
    296.00000000       49054602      -25126780      -87856284      -97825879
    300.00000000      -49269202       22061232       74363930       77423270
    304.00000000       33464394      -20620665      -48295293      -36578349
    308.00000000        -987263       25364106       17755876      -13868208
    312.00000000      -38510232      -34357368        6704777       47958114
    316.00000000       66873338       42995520      -14390342      -67006559
    320.00000000      -81916205      -47384853       16604405       69490937
    324.00000000       75193414       33382498      -20593209      -49868778
    328.00000000      -42928703       -9715958       20097197       24475691
    332.00000000        4572209      -18810619      -27464660       -7088377
    336.00000000       28148860       48441042       38311040       -8154908
    340.00000000      -55450887      -69347249      -37878898       18289916
    344.00000000       62432718       66150332       31211039      -19195395
    348.00000000      -48911685      -46338469      -17429084       13141967
    352.00000000       33360408       22198261       -9073417      -25369887
    356.00000000      -13870194       12760079       38190540       29894857
    360.00000000       -3461934      -40957403      -52544515      -33528369
    364.00000000       12558677       49529111       58817527       32039552
    368.00000000      -11838779      -46943140      -50898331      -22562464
    372.00000000       18091499       34500234       25921203       -1646020
    376.00000000      -21359428      -16941070        6002645       23223335
    380.00000000       22023296         330835      -28590506      -43681971
    384.00000000      -30420854        5031685       40269858       53690014
    388.00000000       30690999       -9810547      -43523305      -48812291
    392.00000000      -21301574       14037019       33279228       26688158
    396.00000000        5951597      -15462487      -17706763       -2766450
    400.00000000       17378655       22369942        6185022      -19472345
    404.00000000      -35699794      -29072830        4404239       35244728
    408.00000000       45093799       26436670       -7427080      -36665479
    412.00000000      -41120327      -21270552       10671314       30116965
    416.00000000       28716717        7246264      -13382397      -20353100
    420.00000000       -8445126       12454081       18493654        8636172
    424.00000000      -12787066      -28292080      -23460922          30366
    428.00000000       26618029       35310756       23986010       -4694457
    432.00000000      -28689390      -36714490      -21476149        7201727
    436.00000000       28831975       26697679        8675709      -10382967
    440.00000000      -19914451      -10406300        6675778       16381811
    444.00000000        9379695       -4937521      -18813059      -20978554
    448.00000000       -3068026       18083127       30210984       21132373
    452.00000000       -1518660      -24385081      -31530326      -18230351
    456.00000000        8607450       22438133       23254252        8453424
    460.00000000       -7801933      -17190483      -10975712        1760331
    464.00000000       12962600       10514148       -1621586      -13791074
    468.00000000      -16162604       -3660622       12614938       21463853
    472.00000000       18693027        -976374      -19085049      -23913689
    476.00000000      -13373006        2543514       19953178       23575210
    480.00000000        8971564       -5819416      -14312820      -10592225
    484.00000000       -1643901        9387272       10966842        2723455
    488.00000000       -8353852      -12266156       -3962793        7843003
    492.00000000       14800617       12155090        -174814      -13236291
    496.00000000      -18296778      -10702470        1655389       13761950
    500.00000000       17623229        9453708       -4629315      -12544773
    504.00000000      -12271810       -3972063        6422272        9089575
    508.00000000        5994163       -4414174       -8590750       -6243139
    512.00000000        4266044        9457880       10578326        1273897
    516.00000000       -8878726      -14487760       -9949184        1632331
    520.00000000       11101849       14374287        7075489       -2600200
    524.00000000      -10388446       -8873954       -4758686        3968160
    528.00000000        5902893        6629058       -2817406       -5981111
    532.00000000       -4706021        2553746        7072986        7350799
    536.00000000        3886814       -5970112       -9380477       -7431655
    540.00000000        -106477        9112985       10792068        7309299
    544.00000000        -841025       -8616957       -9926053       -3261041
    548.00000000        3294287        5128900        3626926         675510
    552.00000000       -4624251       -4749125       -1220511        2817929
    556.00000000        4493277        3448629       -2610181       -4248874
    560.00000000       -4343472       -1086478        5772602        8489808
    564.00000000        4821201       -1010353       -4493181       -7010692
    568.00000000       -4460680        1042129        6184497        6230762
    572.00000000        4623293       -2570109       -4587426       -1457289
    576.00000000         679388        2806023        3748514        -455322
    580.00000000       -2853633       -2337418         602039        2215446
    584.00000000        3239776        2828230        1173522       -2387405
    588.00000000       -3913461       -3249871        1175094        3724235
    592.00000000        5292747        1674481        -848395       -2049285
    596.00000000       -2624732         166198         824411        2529384
    600.00000000        1398713       -2543235       -1827465       -1068637
    604.00000000         665919        3534877        2203795         899229
    608.00000000       -2723837       -3380467       -2877695        -144224
    612.00000000        1863052        2204454         896249          76676
    616.00000000       -3900272       -1746748        -500769         878907
    620.00000000        1216154         307809        -116716       -1725841
    624.00000000       -1030628         174063         134903        2493026
    628.00000000        1464101       -1317706       -2245281        -831279
    632.00000000        -728447        -864208        3272411        4128475
    636.00000000         834398       -1671442       -1066422        -982691
    640.00000000        1153309         371105        2102127        -462818
    644.00000000         554645         261500        1024631         363730
    648.00000000        2772294        -139026        -115112       -3022625
    652.00000000       -1828323       -1677804        1217498        1733473
    656.00000000        1302815       -1344029        -812659       -1205649
    660.00000000       -1008745        -324304        1013858        2229668
    664.00000000         647583         132787        -981429         187196
    668.00000000        1389779        1071397         284035        -923313
    672.00000000       -2156297       -1775807         418219        2112248
    676.00000000        -572755        1754405        -199856         342434
    680.00000000        -974252       -1016399        -346647        -526405
    684.00000000        -225701         324329       -1378229        -523232
    688.00000000        1670976        -245977       -1069522           3484
    692.00000000          78060        -178038       -2082908        -356114
    696.00000000        -143161        1425271        1697487        1559132
    700.00000000        -736839       -2471071         300256         149698
    704.00000000         180833         547934         933387         -92965
    708.00000000        1391372        -514405       -1202386        -260822
    712.00000000          72451         828208         159104        1217660
    716.00000000        -126025       -1518508        -881997        -217529
    720.00000000        1139443         601817       -1087771        -126056
    724.00000000       -1459592        -442888        1384645        2642245
    728.00000000        1683664         -76364       -2102519        -847814
    732.00000000        -145784        -409544        2468546        2336691
    736.00000000         539403         312788        -720240           -555
    740.00000000          91935        -303170        -279508       -1779817
    744.00000000        -580023         243979       -1024776        1658814
    748.00000000        1450389        1182513        -171779        -915055
    752.00000000       -2674956       -1714105        1360695         357185
    756.00000000        1794553         501286          23157       -1512090
    760.00000000        -790887        1280996         -51176        1598603
    764.00000000         129744       -1580035        -336703        -979977
    768.00000000        2184745         546449         707839       -1183260
    772.00000000        -857737       -1045746       -1231634        1157717
    776.00000000        -298528         873214        1092187        -418230
    780.00000000         270119       -1486908         213535        -257444
    784.00000000         586452        -334717        -437550        -667908
    788.00000000        -875006         852509        1146841        1938875
    792.00000000         300018        -797128       -1209238       -1743154
    796.00000000         -78322        -984075         556295        1161543
    800.00000000         700447        -331579        -564395       -1154672
    804.00000000        1046059         151138        -805482        -285119
    808.00000000         592218         129736        -548901        1555848
    812.00000000        -175302         546159         -70164       -2155980
    816.00000000         -91957       -1269115         598484        1517598
    820.00000000           9778        1939692        -381909        -560823
    824.00000000         161881        1120584        -103092        1074216
    828.00000000         658148        -408350        -931917        -689573
    832.00000000         605060        -586397         158645       -1402958
    836.00000000        -841156        -643589        -578810        1751950
    840.00000000         256318        1275616        1092869        1517627
    844.00000000        -777929       -1169145        -508842         -26768
    848.00000000         989281        -190815         633958        1149742
    852.00000000        -435789         420176       -1264060        -268748
    856.00000000         355659        -958735        -957991         645676
    860.00000000        -847005        1179238        1049924         134325
    864.00000000        -502156       -1245517        -843481        -611763
    868.00000000        1679494         532169         192391        2171441
    872.00000000        -681061        1692251        -637182        -849536
    876.00000000         457450        -403707        -463994       -1044880
    880.00000000        1546267         182397         987806         673895
    884.00000000        1398464         474449        -820602        -790498
    888.00000000         531941           5844        1917318         942554
    892.00000000         634773           1494        -312320         273823
    896.00000000        -253095        -308877         291369         706790
    900.00000000        1546756         466054        -183846       -1063947
    904.00000000        -108501         -53034        -427398         376247
    908.00000000        -272999        -169286        -296986         -12703
    912.00000000         765536         892284        -328057       -1003991
    916.00000000          -8822       -1334376         -70670         260478
    920.00000000         477842         634341          88933         799789
    924.00000000         -61501         -81039       -1172674         730919
    928.00000000        -725918        -348955         559661        -652450
    932.00000000         241586         475074         169422         599681
    936.00000000        -247634        -540047       -1252668         929255
    940.00000000         113828         595014          54851         791259
    944.00000000         158280         746845        -905477         776927
    948.00000000        1157575         366580         595021         654395
    952.00000000          43094        -101046        -158751        1043032
    956.00000000         -93186        -213281         391818         303079
    960.00000000         828083        -321976          22641         656568
    964.00000000         305434        1353519        -398660           4947
    968.00000000         665015        -289449        -355872         607527
    972.00000000        -345204        -375431       -1358497         285271
    976.00000000         514252         752906         476632        -929499
    980.00000000       -1088468         108108        -569570        -402908
    984.00000000         109297        1128212          28812         252978
    988.00000000        -713753         433572        -238790         373557
    992.00000000         560786         730950         132333        -113785
    996.00000000         531070         170291         -80096         229011
   1000.00000000        -170582        -207778         -12637       -1553447
   1004.00000000        -282653        -368783        -555988         541149
   1008.00000000        -504497       -1021197        -347478         346887
   1012.00000000        -485052         469481        -152353         -39388
   1016.00000000         468479         326814         258150         921537
   1020.00000000         561049        -142892          69537         133792
   1024.00000000         272824        1039318         292323         346783
   1028.00000000         252323          -4860          90462         -82236
   1032.00000000        -383795        -188467         437887          62996
   1036.00000000         864910        -671708         323024        -212532
   1040.00000000         170596         -86674        -204809        -852141
   1044.00000000        -384341         677188           -577         952306
   1048.00000000         -29095        -400169        -804003        -855064
   1052.00000000         241481         350001         614399         758273
   1056.00000000        -302581         318173         348970         788883
   1060.00000000        -921321         139319        1049844         -26576
   1064.00000000         -57155         460361        -176697            124
   1068.00000000         -98711        -423462        -464935        -815437
   1072.00000000       -1199368        -554430         552381        1404588
   1076.00000000        1180125        -281057        -133376        -185912
   1080.00000000       -1343266        1045952         146000        -535635
   1084.00000000        -647926        -214007        -157516         866227
   1088.00000000         156269          45148        -208627         305140
   1092.00000000        -626212        -184769         -96160        -167815
   1096.00000000        1302381          57301        1272116        -188633
   1100.00000000        -743278         -95422          93031        -952818
   1104.00000000        -261195         -55467         399652          41154
   1108.00000000        -246750         647556         -83828       -1029873
   1112.00000000        -946021         187379        -420343        -346276
   1116.00000000         768300         549550          78378        -186078
   1120.00000000        -251615         504249         302702         372895
   1124.00000000          17968        -933687         683175        -900833
   1128.00000000        -198037        -280122         498563        -138294
   1132.00000000        -202579        -295319       -1273254        -989600
   1136.00000000         367310          26151        -676603        -184502
   1140.00000000         263054        -230417          72661         187231
   1144.00000000        -331174         -62253        -652118        -195554
   1148.00000000         120226         323936         480647         969823
   1152.00000000          25359         155855       -1173894        -572481
   1156.00000000       -1046913        -239299         746778         370809
   1160.00000000        -400112         286398        -404410        -485137
   1164.00000000         363917         161277        -437797         -59871
   1168.00000000        -862390         355367         297949         562769
   1172.00000000         -45442         320838         322862       -1072315
   1176.00000000        -561242       -1396767        -676915        1034556
   1180.00000000         700957         364057         378871         714524
   1184.00000000          18458        -316522         761461        -375130
   1188.00000000         -46439          34359          25044        -192720
   1192.00000000        -301428        -321468         268505        -533435
   1196.00000000        -607144       -1307836         450905          33796
   1200.00000000        -186941         411405          84925         880279
   1204.00000000         134044       -1293785         409377         600620
   1208.00000000         -92232         524540        -971455        -216265
   1212.00000000        -133724         142539         570191         -80928
   1216.00000000        -154488         -61227         -41519           -885
   1220.00000000         251898         534749        -416027          23745
   1224.00000000        -441780        -289209        -666511         -74738
   1228.00000000          85432         651299           5943         221670
   1232.00000000        -208399        -438160         427539       -1202534
   1236.00000000        -216475         265653         182648        -131195
   1240.00000000         163479         804024        -769551         691285
   1244.00000000         522617        -184626         567705        -530149
   1248.00000000        -556987        -105226        -435841         213748
   1252.00000000         787085        -542874         603961        -267154
   1256.00000000          71080        -105072         -63600        -783035
   1260.00000000         470433         278917        -762486        -149014
   1264.00000000        -113327         115036         223496         604433
   1268.00000000        -127425        -459958        -491415        -566618
   1272.00000000        -312693         897028         243725         694077
   1276.00000000        -391622         597295         157421        -456418
   1280.00000000           1140        -844667         338387        -597497
   1284.00000000        -680002         582614         -72183        -838969
   1288.00000000        -174943          46503        -625872         572145
   1292.00000000        -637451          55417         404093        -373493
   1296.00000000        -218531        -830214        -103159        -767140
   1300.00000000        -182704         -16525         276370         584878
   1304.00000000         358935         135992        -498852         208728
   1308.00000000          63459        -256266        -981251          -8350
   1312.00000000         -31317          16882         -36476        -358430
   1316.00000000          25488        -281452         371827        -467275
   1320.00000000        -229238       -1290185          95990         169339
   1324.00000000        -425584         504739         181087         -57186
   1328.00000000         398634          -7533         252930         396389
   1332.00000000        -702803         108002        -266100         646741
   1336.00000000         675629        -237668        -394867        -254017
   1340.00000000        -102434        -243373        -177639          68548
   1344.00000000         801629        -777554        1007112         719841
   1348.00000000         666194         -24116          81058         414322
   1352.00000000        -543298          -8452        -612623         163537
   1356.00000000         133719         936931        -172390        -303369
   1360.00000000         471072        -192833        -576982        -426748
   1364.00000000        -592676        -575541         205380         -62598
   1368.00000000         535765        -752381         497695         165735
   1372.00000000          15648         243325         791382          94849
   1376.00000000        -420700         316123         -97764        -239949
   1380.00000000          35820        -227884        -343875        -431126
   1384.00000000        -182042         149299         184928        -435158
   1388.00000000         732693         562860         216144         363882
   1392.00000000       -1129487        -278047        -399609        -386381
   1396.00000000        -303284         -69334          52533        -312797
   1400.00000000        -279555         494254        -158052        -461779
   1404.00000000         -79887         515157         157410         608772
   1408.00000000        -227379       -1061280        -348979         218081
   1412.00000000        -253000         882447          67246          75426
   1416.00000000         526745        -200448        -172772         243401
   1420.00000000          55774        -541501        -131958         398534
   1424.00000000        -191543         -53119        -114412         -66131
   1428.00000000         104982         914166        -220815        -534209
   1432.00000000         -26204        -296507         351137         383887
   1436.00000000         382603        -275670         417335         476294
   1440.00000000         304292        -230398        -403532       -1225007
   1444.00000000        -838140        -185662          25150         176610
   1448.00000000        -133354          46542        -315493         408171
   1452.00000000         141152        -277341           1782          22175
   1456.00000000        -608386        -118256         410868         193838
   1460.00000000         -75351        -441201         104127         673631
   1464.00000000        -131280        -192446        -264284         330827
   1468.00000000        -111234        -135325         309005        -156587
   1472.00000000        -338183          26379        -451542         467246
   1476.00000000         595398         -23568         150985         282126
   1480.00000000        -564444        -443671         131283        -225050
   1484.00000000         -60593         154757       -1000061        -249364
   1488.00000000        -134501          98306        -443318       -1252386
   1492.00000000         -63352          38557         632088        -114759
   1496.00000000        -131518         116601         -47882        -221807
   1500.00000000         251730        -608183          25801         335858
   1504.00000000          41285        -179726        -138804         384886
   1508.00000000         124298        -781702          -4357         519148
   1512.00000000        -213656         176917        -833360        -350704
   1516.00000000           3758        -720597        -243078         695753
   1520.00000000          59986         -22902          -5081         489976
   1524.00000000         798189        -306411          15686         170230
   1528.00000000          80159        -634222         118899         352433
   1532.00000000        -431563         146837           1191        -619435
   1536.00000000          57413        -371299         684203         178083
   1540.00000000         670484         255449         398186         503751
   1544.00000000         151054          43708        -635273          54492
   1548.00000000        -258395         -42825         -17104         -49467
   1552.00000000        -153289         474615        -426636         -61135
   1556.00000000          45713        -117154         810951         149813
   1560.00000000         328138         554122        -418575        -337548
   1564.00000000        -198165          70366        -629062        -130567
   1568.00000000        -399870         140158         544065          26425
   1572.00000000        -353848         332477         356780        -524423
   1576.00000000         420985        -207695        -451958         276057
   1580.00000000         105997         253394        -247376          86250
   1584.00000000        -326513        -389703         174942        -220266
   1588.00000000          20335         -58320        -401942        -327367
   1592.00000000         475186         336990         -53589        -195704
   1596.00000000        -751938          37423        -521048          44610
   1600.00000000          36676        -274912         -32141        -197861
   1604.00000000         464252          -5822        -227040        -269758
   1608.00000000        -152696        -535786         415871         -41637
   1612.00000000        -440625         -24827         661161         133809
   1616.00000000         -16743         -56214        -141733        -313511
   1620.00000000        -724511         404601         262180         -12302
   1624.00000000            140         245670         452947         387153
   1628.00000000         -60636         -20399        -313791        -513023
   1632.00000000         -68482        -546905         149716         238067
   1636.00000000        -220725         310548        -289635        -252601
   1640.00000000         527010         411266        -224306        -137934
   1644.00000000        -391096         140510         751841        -221252
   1648.00000000        -348289         211477         110019         148091
   1652.00000000          19764         474526         -35480        -730418
   1656.00000000        -234077        -184987         -96802          43348
   1660.00000000         221148        -485169        -498460         -59923
   1664.00000000        -225563         578537         102591         246314
   1668.00000000         173112         374250        -183525         187425
   1672.00000000        -112838         325225        -188071        -216956
   1676.00000000         236674        -259126         493368          70068
   1680.00000000         -34653         374950         -12025         398732
   1684.00000000          53701         354164         180167        -181992
   1688.00000000        -259073         -47796        -278463         283625
   1692.00000000         -52294        -409122        -422070          61495
   1696.00000000         411437         -81494        -251103        -290530
   1700.00000000         -59935          -5013          93364        -411108
   1704.00000000         125777        -374853         216453        -403363
   1708.00000000         105499         160740         303781        -339483
   1712.00000000        -260530        -207967        -265152         236386
   1716.00000000        -139325        -136966         -76230        -119160
   1720.00000000        -225832         185384         672680         -11072
   1724.00000000         107342         153719         -92106         191390
   1728.00000000        -134710         122959         187541        -200553
   1732.00000000         -64940         114662        -133745         -59689
   1736.00000000        -284032         208717         390273        -222951
   1740.00000000         222851         372439        -616729         368675
   1744.00000000        -255999        -119038         251733         151018
   1748.00000000         200904           3189          13064         205043
   1752.00000000        -655766        -145589          67589          -6048
   1756.00000000          61705         559686         128315        -852682
   1760.00000000         174296        -188424        -216712        -235672
   1764.00000000        -411562         455401        -394425        -107796
   1768.00000000        -113221          73967        -266908        -299021
   1772.00000000           2966          58222        -477341        -437409
   1776.00000000          28231         224884         -17400         195801
   1780.00000000        -220425         348245         220160         -83889
   1784.00000000          -6576         -32862         -63913         -21445
   1788.00000000        -335822          -1269         134636        -121240
   1792.00000000         207019          -3930         336706        -369579
   1796.00000000         258897        -270620         -68514        -355213
   1800.00000000        -755041          83589        -379056         562899
   1804.00000000        -279413         166101         252690         246606
   1808.00000000          84286        -336958        -479325         -13644
   1812.00000000        -116550        -233389         -36959        -286406
   1816.00000000        -291694         -66050         -68660        -847262
   1820.00000000        -168234         301408         290178        -239205
   1824.00000000        -261603         180145          80943          37111
   1828.00000000         -97644        -218723          72020          75294
   1832.00000000        -322691        -170365         351671         373420
   1836.00000000        -237932         136427         231843         200378
   1840.00000000         100011        -265195        -312789          98703
   1844.00000000        -135892        -441422         -78639         -88934
   1848.00000000         122351        -359807         214018        -485784
   1852.00000000        -165122         -54781         277286          65823
   1856.00000000        -146089          59256        -177316        -278029
   1860.00000000        -261155        -149927         239699         -79605
   1864.00000000        -378253         274178        -391158         257344
   1868.00000000         -39619         138460        -100887          13933
   1872.00000000         -42234          36491        -186214        -161980
   1876.00000000        -496035          44598           1263          -4836
   1880.00000000        -159527        -104236        -120072         149305
   1884.00000000          15863        -109531          10368          57912
   1888.00000000         135327        -537952         -26912         -79818
   1892.00000000        -139575         -15653        -230823         417559
   1896.00000000        -223439        -505823        -107966          84703
   1900.00000000          43479         234653         -38898        -385090
   1904.00000000         287218        -324328          77253         -99165
   1908.00000000        -238187        -259901         -33267         118768
   1912.00000000        -184999         311977        -243214        -100050
   1916.00000000         -40556         -23882          71737         -34794
   1920.00000000        -305291        -257232        -293345        -283569
   1924.00000000         252912          52281         -31745        -152231
   1928.00000000         168874         217047        -191240         146761
   1932.00000000        -294720         -21525         -27293           1072
   1936.00000000        -175736          61179         340430        -137499
   1940.00000000        -268458         149709         286119        -282798
   1944.00000000        -346360         -37734        -147517          43315
   1948.00000000        -215593        -328028         144658        -215881
   1952.00000000         123953        -207917        -157130        -566578
   1956.00000000         111195         230023        -265007        -122361
   1960.00000000          67235        -132081        -226000          64277
   1964.00000000        -256987         -25370        -524043          17808
   1968.00000000          36094         180782         102161         -20041
   1972.00000000         -61559        -373077        -260370        -162990
   1976.00000000          39313        -104372         153273        -107751
   1980.00000000        -278970          73298           2915         -64148
   1984.00000000         -63984         -75438         -66019          92324
   1988.00000000         135807         209343        -339612         285336
   1992.00000000        -410667         189832         -16402        -220467
   1996.00000000        -151866        -113318         200266         111773
   2000.00000000          24750        -246161          39408        -202119
   2004.00000000         -26738        -205251          37895         -98424
   2008.00000000        -248357         174538        -136429          78121
   2012.00000000        -133829          14713         126209         -16862
   2016.00000000        -121223        -163260        -343048        -280239
   2020.00000000         -95838          -6275          59197         -43669
   2024.00000000         -50869         162235          20463        -271571
   2028.00000000        -127403          63987         309465         -34411
   2032.00000000         294818         -11761         -93001          41046
   2036.00000000          16728         -94277        -232257         -28364
   2040.00000000        -117290        -261049         -74108           3600
   2044.00000000         -93520         285455        -222649         233895
   2048.00000000          45094         104121        -255618        -369599
   2052.00000000          60282         -49040         -48403          20365
   2056.00000000        -148005          54942          47405        -146874
   2060.00000000         -56410        -269168         193727         -23743
   2064.00000000          88363         -69018        -135481        -180867
   2068.00000000         239591         141878        -109662         128155
   2072.00000000         -65786        -201747        -120457          21156
   2076.00000000          70420         -41459         132020          30226
   2080.00000000        -183973         200869        -214753        -399661
   2084.00000000         -47209         -98186         -63462         114833
   2088.00000000        -328042         -46650         298591        -132823
   2092.00000000          57399         205470          39777         175124
   2096.00000000         128487          47627         -94324          93864
   2100.00000000        -217359        -164148          77101          12095
   2104.00000000         -86148          55873        -326087         -69042
   2108.00000000        -199671          29928        -135197         -72233
   2112.00000000          76957        -187888        -283548          22313
   2116.00000000        -188567        -243322        -133837        -192272
   2120.00000000         334376          88888          77834        -118676
   2124.00000000         166915         -99109        -106274        -417350
   2128.00000000        -110411          71072         225124          46869
   2132.00000000          81655         -58177         217016         395413
   2136.00000000         -81694         -28409          21625         -65165
   2140.00000000        -207663         -81025         294429         243274
   2144.00000000         -55485          82968          68453         122950
   2148.00000000          95286         295226        -320497          96049
   2152.00000000         -54835          -3937          52950         246615
   2156.00000000          86264         -97138         177141        -160574
   2160.00000000          38113          82449         213353        -347730
   2164.00000000         -90453        -260905         -87679        -107378
   2168.00000000        -298028        -104951        -171691           7643
   2172.00000000         136436         140893         -90259        -247993
   2176.00000000         -86959         -96315        -226437        -240121
   2180.00000000          87924        -112815         165227          96343
   2184.00000000          71765          -1514         144365        -152738
   2188.00000000         104068          10262         351659        -108142
   2192.00000000          81743         -72772         -14004             -3
   2196.00000000         -24367        -126051        -103974        -207456
   2200.00000000         -96290         -49623         162951          82254
   2204.00000000        -211300          29027        -401675         -64248
   2208.00000000        -203420        -114249          99402         -95759
   2212.00000000         217775          53670        -115417        -146102
   2216.00000000          23944        -138620         -95351         237415
   2220.00000000         -30305        -219844         133313        -100163
   2224.00000000         -64177        -220412        -335107        -156719
   2228.00000000         131313         242828         121559          38648
   2232.00000000          -4441         -22500        -160273        -194492
   2236.00000000         250774         -30968        -117446        -189682
   2240.00000000         -74462         -19152        -144469        -261214
   2244.00000000         -99311         -39100        -406182          53142
   2248.00000000         127058         238534         100771          16405
   2252.00000000        -135328          50586        -167004          24697
   2256.00000000         250881         -73959        -171469          67602
   2260.00000000         -73053        -180336        -123314        -150763
   2264.00000000        -193993          46233         -24282         305056
   2268.00000000         172796         -65291            864         287741
   2272.00000000         196013          -7038         261557        -146867
   2276.00000000          87566          29350        -162411        -109100
   2280.00000000        -164957         166708          69003          34934
   2284.00000000        -282534         238691          10912           9074
   2288.00000000         129934         147052         124896        -260212
   2292.00000000          -2588         -42134         110757         327142
   2296.00000000         164625          35259        -137995         151455
   2300.00000000        -126196        -290505         -55824         -94682
   2304.00000000        -123903          85349         172363         148066
   2308.00000000        -147504         -30884         -74205         -67892
   2312.00000000         -14116         -75368          41479         -15853
   2316.00000000          36537           1513        -131074        -110194
   2320.00000000          -5489         147817          66601         112029
   2324.00000000         255081         271056        -201071          19695
   2328.00000000        -107466          77651          51851          75079
   2332.00000000          23460         103361         -56138         112948
   2336.00000000         221545         -23515         -83319          28647
   2340.00000000          64201         -67249        -231889        -146732
   2344.00000000        -236277         -67547         148818         -37140
   2348.00000000        -125599         192564        -208539        -234925
   2352.00000000        -188093          28227         -23426           4787
   2356.00000000        -194317        -160977        -150616         -89776
   2360.00000000          97264         -80175         -19470          55940
   2364.00000000         136376         162460        -141331         -53761
   2368.00000000         185278        -133002         -15234         187663
   2372.00000000          24165         -58904         119135         -75178
   2376.00000000         -78193          -2730        -234791          45285
   2380.00000000         -53153         -73661         -50459         -73812
   2384.00000000          45790          78513          32914         196017
   2388.00000000         -48457          49703          -2782         125016
   2392.00000000         -60195         118571          57554          97326
   2396.00000000         221102         168802        -130628          51876
   2400.00000000          59014         -82987         -37094          71434
   2404.00000000        -154542         -29067         -12584        -281696
   2408.00000000          98354         -58087          40815         -61660
   2412.00000000         -32340          50822         163515         -58804
   2416.00000000          50583          22524         -47265         -16336
   2420.00000000          31957          71649          35250         -87204
   2424.00000000        -253715        -169098         -19569         251840
   2428.00000000           1724        -115912         -87341         106821
   2432.00000000        -165102         -72502          74234         -38009
   2436.00000000          70826         -62249        -244575        -161488
   2440.00000000          94528          45033          -2154         -32646
   2444.00000000          90380         234080          -7489          12044
   2448.00000000           5360          70215         -40669          49046
   2452.00000000         146607          -4547         -91785        -145217
   2456.00000000         -74764        -140979         108073         229777
   2460.00000000         -31457         -67569         -98129         292454
   2464.00000000          27507          18235        -101396        -150239
   2468.00000000         -66596         133902         121637          43401
   2472.00000000          -7288        -102330         -90351         -38299
   2476.00000000          31190         -86289          42144         149317
   2480.00000000         -43446         141337         -38174          80513
   2484.00000000        -128601        -218628          60379           3843
   2488.00000000         -16807           5415          64371        -273313
   2492.00000000          36890          83060          35999         -61602
   2496.00000000        -129810          79504         -67865         -69716
   2500.00000000        -126343          84591         -50832         145314
   2504.00000000           6626          78161          25496         111950
   2508.00000000         152783        -113136         -84410          64195
   2512.00000000        -105626         -16801         124282        -256208
   2516.00000000        -108486         -21318          26825         177010
   2520.00000000          85941         150016         -34863          11485
   2524.00000000         -28861         -20698         -47486         122866
   2528.00000000         153885         101736         -37695        -143784
   2532.00000000         -73982         -45527         158830         -85667
   2536.00000000         194164         -79740         -19500         116280
   2540.00000000        -130217           7748         -72004        -195780
   2544.00000000        -200742           6076        -196539        -140519
   2548.00000000         -10574          64617          71703         -95372
   2552.00000000           6511         104064        -138428         -32694
   2556.00000000        -131593           2095         -90045           6858
   2560.00000000         -17844         159345         186735        -115008
   2564.00000000          12564         -57383         -87529          33779
   2568.00000000         -34575          15060          -1962        -101636
   2572.00000000         -74192         -74039         -21689          92598
   2576.00000000          71030        -132795          72132          -3162
   2580.00000000        -141886          95692         -63665         -66425
   2584.00000000          29398         -49319        -187215         -33466
   2588.00000000         105000         -61954        -185021         -32856
   2592.00000000          99876          93918         -79352        -128514
   2596.00000000          51200           5946          11573           3833
   2600.00000000          29591         -93384        -108369         -12502
   2604.00000000         135982          -3558         -91401        -118418
   2608.00000000        -122605         -28611          25219        -173958
   2612.00000000         -55908        -105409          82673          25727
   2616.00000000          14634        -105065         -53876          88865
   2620.00000000          -7684         -39919         -97262         -50209
   2624.00000000        -169569        -172419          12403         -20578
   2628.00000000         109155         -15131          13025         -98187
   2632.00000000        -126375          52684         -57748         108480
   2636.00000000        -152246         140286          -4048         136256
   2640.00000000         -71838          21152          20239          14337
   2644.00000000           8574          -5951          35970          15729
   2648.00000000         -54682          16232          19116         -41670
   2652.00000000        -107269         -53512          87621          56556
   2656.00000000        -107024          65980          68615         -49718
   2660.00000000         -49753          66968         -52332        -106481
   2664.00000000         -97734         -99382        -103119          82762
   2668.00000000         -43608         -32749         193810          95754
   2672.00000000           9962         109354         -57154         -53702
   2676.00000000          49172         154857         161431          24201
   2680.00000000         -23145          59264           9019         -66666
   2684.00000000        -112001          42778         -74635         -77782
   2688.00000000         -70851         -70480         -51060         -12906
   2692.00000000         -10087         121971        -196706         -87343
   2696.00000000          38112          36284          46737          37312
   2700.00000000        -108129         -10943         -71836         122254
   2704.00000000         -36118         -25803          95579          13222
   2708.00000000         -25571          54646         -58184         -91826
   2712.00000000         -28328        -210123        -136988         -86559
   2716.00000000          62537         -22809        -102895         -46328
   2720.00000000         -72600         142374         -36305         159392
   2724.00000000         -43678           2450          84266         -74568
   2728.00000000           7099          61244        -102060         101658
   2732.00000000          75983         -22458         110599          -1041
   2736.00000000        -154561          80368         -18329          -7183
   2740.00000000         -20196         -33663          43217         -13048
   2744.00000000         -39337          68284         -13812         -97001
   2748.00000000          25719          78533          28053        -116581
   2752.00000000        -114389          73222          67814          18297
   2756.00000000          21359         -14554         -74571         139948
   2760.00000000         103787         -89790         -25851         -33563
   2764.00000000          97301         169711         -57339          -1790
   2768.00000000          -5330          34754          20578         -38872
   2772.00000000          -5014         -32358         -47843         -20816
   2776.00000000        -103492         -33939          78111         -45813
   2780.00000000          16403          19442        -132760         -12619
   2784.00000000          31299         171009           9825          27296
   2788.00000000          39001        -109698         -55246          91334
   2792.00000000          50889          56414         -19522            203
   2796.00000000          58413          91230          45124          60556
   2800.00000000         178098          72827          -9502          91850
   2804.00000000           1334         -47829          15468          64745
   2808.00000000         -42636         -19862         -60982          16696
   2812.00000000         -60408         -55748          16943        -138285
   2816.00000000          21271         -52363          15465         -41451
   2820.00000000         -92622         -53600        -101229         -80667
   2824.00000000         -47931         -11419          33499         -22509
   2828.00000000         -13347         -11466          46552          -7022
   2832.00000000          40814         -51984        -132367          20825
   2836.00000000          -7948          90006         -37305          63101
   2840.00000000         -71956          48779          20808           1432
   2844.00000000          38933         -87197         107518         -18951
   2848.00000000          34434         -46340          73006           2477
   2852.00000000          95290          42357          38182         186905
   2856.00000000          33836           2460         -54315          48864
   2860.00000000          14165          -8625         -55135         -26262
   2864.00000000          -7323          74868          99203         -64317
   2868.00000000          -5147          58505          92608         -65917
   2872.00000000         -99572         112435         -61060         -46516
   2876.00000000          83624         -63721         -67499         -18979
   2880.00000000         102934          37197         -16843         -95479
   2884.00000000          23098         -34199          90521            423
   2888.00000000          68773         -53850          35463          10836
   2892.00000000         -93901          54941          52775          24184
   2896.00000000         -64430          18339          -9633          35050
   2900.00000000         -51764         -16557         -52677         -13659
   2904.00000000          12821         -51031          69531           -233
   2908.00000000         -17075          24756          65009         165990
   2912.00000000         -95491         -42993          56387         -38886
   2916.00000000           6763         -61927         -34864         -37107
   2920.00000000         -52972          22493         -12369         -94360
   2924.00000000         -93397         -64370          17920         -35366
   2928.00000000           2216         -23254         -51692          43130
   2932.00000000         -76466         113212          29042          24732
   2936.00000000          21422          43357         -63568          50102
   2940.00000000          60968          46541         -88501          86745
   2944.00000000         -78091         -49312         -42027           -716
   2948.00000000          10799          36356          47175         -14026
   2952.00000000         -57371         -45526         -26957            669
   2956.00000000         -38537          49275           4964           -546
   2960.00000000          36060          20897        -121034         -29350
   2964.00000000         150436          14003         -41725          29804
   2968.00000000          77546         -13610          59683         -40495
   2972.00000000         -17366           -808         -45916          64371
   2976.00000000           -456            112         114033          45172
   2980.00000000          84134         -90247           2747         -58980
   2984.00000000         -18223          17962          67898           2287
   2988.00000000         -30548         -60463         -42509         132029
   2992.00000000           7623         -43839          23972          66319
   2996.00000000          51548         -33740          30515         200303
   3000.00000000          -1338          35700          53830            363
   3004.00000000          41661          55385          41742          54136
   3008.00000000           5990         -71409          -8141           9907
   3012.00000000         -61617          -6075          40777         -60644
   3016.00000000          63497         -22169          27096          58662
   3020.00000000         -13396         -54752           5176          16443
   3024.00000000          41487         -26060          47459         -14253
   3028.00000000          21304         131970         -27618          -2765
   3032.00000000         -34625          63774        -106488         -40570
   3036.00000000          13725          36637          98302          17916
   3040.00000000         -19759          97616         -81377         -10036
   3044.00000000          28556          30259         -20451         -14985
   3048.00000000          51154          38981           1057         -42034
   3052.00000000          17774           2521         -60507         -14195
   3056.00000000         -81930          33276           3465         -65902
   3060.00000000         -30843          96585         -30012          59352
   3064.00000000         107836         -57182          56198         -21041
   3068.00000000          60397          89188          22597          21749
   3072.00000000           7352           8524          51827         -30934
   3076.00000000          17924         -47276         -33536          35835
   3080.00000000         -40082            259         -39365          67712
   3084.00000000         -32544          40091         -11758         -44208
   3088.00000000           8330          83232         -46843          55350
   3092.00000000         -92888         -53549         -15526         -37559
   3096.00000000          25425          40019         -33692          77643
   3100.00000000          78442          50696         -25229          68813
   3104.00000000          13025          34373          -9240            524
   3108.00000000          13292          40514          15035           2231
   3112.00000000         115974         -49388          18770         -19416
   3116.00000000         -13251          14493         101522         -33101
   3120.00000000          26591          43009          27395          21922
   3124.00000000         -14405           1493         -42323         -21847
   3128.00000000          72859         -27845         -16919          -1615
   3132.00000000          -1477          34523          24755          50928
   3136.00000000          23306          84282          94427         -28026
   3140.00000000         -52717         -89497          23550          48842
   3144.00000000         -91885          47762          62148          35991
   3148.00000000          -7106          27333         -20508          26198
   3152.00000000          34815         -70379          12750          44125
   3156.00000000          72491          57052          34346          -9862
   3160.00000000          52301         -38408          68144         -12944
   3164.00000000          24926          55946          15419          20419
   3168.00000000          14235         -39209          22438          62493
   3172.00000000          63722          -4872          47897         101979
   3176.00000000          70874           7127         -15132          31527
   3180.00000000          53967          56628          -5448         -71264
   3184.00000000         -11465          51209          66087         -77836
   3188.00000000          42194         -30767          18851         -41045
   3192.00000000          58409         -10476         -31273            836
   3196.00000000           7595          40452          -5424          40630
   3200.00000000           9877         -59102           4356          -2878
   3204.00000000          11036         -65857          29290          14905
   3208.00000000         -14310          38732         -38930          34445
   3212.00000000            133         -22224          21261          59349
   3216.00000000          63787             -7         -86679          70161
   3220.00000000          74667         -10874          -7481          41945
   3224.00000000          97807         -28493          16916          60962
   3228.00000000          57662          48483          12465         -14759
   3232.00000000          69574          48895          75638         -30373
   3236.00000000          30899          24659          -6210          31755
   3240.00000000          20506          51942          -3131         115590
   3244.00000000          -5977          20740          -7614         -66007
   3248.00000000          72400         -82778          -9595          24226
   3252.00000000          30697          22781         -45326         -65922
   3256.00000000          10020          18575          11764          17444
   3260.00000000          34616          48290         -67183           5846
   3264.00000000          44569           1851           9057         -20298
   3268.00000000          79699          42395          27549         -23933
   3272.00000000          44768          37812          24124          -8980
   3276.00000000         -17429         -52256          47662         -29323
   3280.00000000         -53489           7654         -44111         -15139
   3284.00000000          71801          -7671          27285          26594
   3288.00000000          21498          14932          62942          -9061
   3292.00000000         -23014          44511         -62481          -4385
   3296.00000000         -43459          30312          37211           7260
   3300.00000000          30459         -15189           5036           6710
   3304.00000000          49582          -7055           9454          -3953
   3308.00000000         -20137          20278          28702           6911
   3312.00000000          19191          18369           5071         -45073
   3316.00000000         -33725         -61271          12657          -3999
   3320.00000000          45136          20946         -45868          45584
   3324.00000000          40219           8323           3644         -12396
   3328.00000000          66773         -21467         -33986         -33696
   3332.00000000         -27085          16901          22548          -2739
   3336.00000000           8729         -41335          -3950          25421
   3340.00000000         -26832          33291           5276           2795
   3344.00000000         -12286          57227             -5          16029
   3348.00000000          20479          58510          27615         -52384
   3352.00000000           6469          -7058          26413         -10819
   3356.00000000         -29007         -25092          59914           4364
   3360.00000000          37492          33816          -1213           2196
   3364.00000000          -7196          63661          28412           8556
   3368.00000000         -17253          -7407         -30534         -14725
   3372.00000000          21994          14931          26561          19837
   3376.00000000           8535          33905         -14104          -8291
   3380.00000000         -11355           -320         -16409          31882
   3384.00000000         -24434          91005         -25318          49143
   3388.00000000          31886           7631          47228         -23245
   3392.00000000          52773          76326         -18157          24839
   3396.00000000          49092         -25243          61705          43612
   3400.00000000         -65959          11819          36728           3977
   3404.00000000         -21870           7984         -26736          28234
   3408.00000000          56401         -20069           4983          15850
   3412.00000000           1459           4614           1928         -27678
   3416.00000000          33806          13808          31859          58589
   3420.00000000         -41074          12111          18527          30468
   3424.00000000          20052           7179         -54705          10320
   3428.00000000          -4003           -746            252          -7306
   3432.00000000          26883          17758          19756          32759
   3436.00000000          20352          53502          15302         -38509
   3440.00000000         -20531          54117          -1024           4988
   3444.00000000         -24146          40737         -49580           5769
   3448.00000000           6567          44219           1524          23223
   3452.00000000           6499          20676         -50311          37145
   3456.00000000           7380          36274         -26611         -33573
   3460.00000000          -6827           8923          -4436          46314
   3464.00000000          35354           1215          11159           1016
   3468.00000000         -27686          45572          13114          17783
   3472.00000000          20508          14433          35351         -29415
   3476.00000000            458           1559          -7323          -9086
   3480.00000000          12853           9169         -72377          58229
   3484.00000000         -10291         -21035          14972          25553
   3488.00000000          13940         -19407         -12786          41373
   3492.00000000          38524           2533           -314          14088
   3496.00000000          12942          58297           1361           8895
   3500.00000000          13460         -14189          23114          13386
   3504.00000000          -4869          23482           6066         -11923
   3508.00000000         -38106          20794         -17885          33513
   3512.00000000          41123          23616         -28251          -2601
   3516.00000000          35818         -10674           5991          15426
   3520.00000000         -18292         -27233          -3553           1063
   3524.00000000          -5148         -13670          24329          -4181
   3528.00000000           5816         -10741         -14618         -20797
   3532.00000000           9376          12247          23603          11719
   3536.00000000         -49203           8582           7661          33329
   3540.00000000          10492         -10590          -3896           8487
   3544.00000000         -16399           7287           7198          17646
   3548.00000000         -16790         -16620          64222          -3627
   3552.00000000           7618           -278         -21277          30564
   3556.00000000           9774          30176         -18553          -4029
   3560.00000000         -18753          46692          19964          -7077
   3564.00000000          46934          19616          36834          30024
   3568.00000000          23337         -21109          28694          31328
   3572.00000000          57721           -677         -26040          31200
   3576.00000000          25552           7361         -12527          -1941
   3580.00000000         -30903          27793         -56167          -2085
   3584.00000000           3136           6109         -15443         -11917
   3588.00000000         -19504           5321          -1131         -33245
   3592.00000000         -14005         -11048          -3237            921
   3596.00000000         -14234          -2720          65104          42508
   3600.00000000           6158         -26871          39590          -9841
   3604.00000000         -26906          16931          -5122          28978
   3608.00000000          28213          46751           9172          19048
   3612.00000000          35869          14122         -20985         -12540
   3616.00000000         -19061         -12825          49395          23358
   3620.00000000          18270         -16858          21037         -28279
   3624.00000000           7595          19092          22616          44063
   3628.00000000          27153           3740          45067          -7978
   3632.00000000          29278          18588           9634          11479
   3636.00000000           3562         -29963            441          14889
   3640.00000000          -1034         -10347            967          53652
   3644.00000000          -4637           1244          17759         -11649
   3648.00000000         -36764          21617         -28532         -26498
   3652.00000000         -24349           9492          14767          17339
   3656.00000000           9073           7366          42400         -22207
   3660.00000000          -8196         -11406         -27138          10341
   3664.00000000          50342         -14432           7115           5591
   3668.00000000           -625         -19113          36204          49506
   3672.00000000         -25185           8660           8554         -43764
   3676.00000000           2432          43349          16829          13744
   3680.00000000          -7296          -8861         -14575          39840
   3684.00000000          -9492           7680          -2032           8461
   3688.00000000          21704          -7529          -2000          -7339
   3692.00000000          16803          -8321         -20377          35401
   3696.00000000           1272         -19286         -10411         -24919
   3700.00000000           3113         -17023         -39426          14059
   3704.00000000          13776          -5097          11491          14240
   3708.00000000         -24168         -12527         -13622          -8225
   3712.00000000          10952           6246           9667          11585
   3716.00000000         -23319           9534          11178          20361
   3720.00000000          -4484          26172           1759         -10352
   3724.00000000          19850          35253          -8303          14873
   3728.00000000          14510          21476          12387           -577
   3732.00000000         -27128         -18738         -37075          29745
   3736.00000000          19692           7607            379          -9585
   3740.00000000          21624         -26676           4981          -8602
   3744.00000000          28814          17122           9220         -34717
   3748.00000000          12458         -10018          13690          15079
   3752.00000000         -10478           7878         -17384         -44907
   3756.00000000          27171           9855          15767           6858
   3760.00000000          28480          13583         -31524          15037
   3764.00000000          20104          13003          29598           6726
   3768.00000000          23157          32476           2759          45402
   3772.00000000           9491          -1525         -27501         -20270
   3776.00000000         -11443         -25415           4036           -329
   3780.00000000          37829          18276          16162           7086
   3784.00000000         -16945          16062         -14495          -3605
   3788.00000000          16267           5660          41129          10067
   3792.00000000         -18326           5479           5116           4396
   3796.00000000          24021           -729           8211           7928
   3800.00000000          21699          33502          26352         -37056
   3804.00000000          -8837         -12850          -6139          -2945
   3808.00000000          -8047         -19645          11856           7424
   3812.00000000          18346           6048           3710         -39596
   3816.00000000          -2396           -680          28197          27510
   3820.00000000           4039          30079          36249          24862
   3824.00000000         -21620           3300         -24386          13032
   3828.00000000           6009          19085          14506          -9854
   3832.00000000         -15734          -3704           7738          -1398
   3836.00000000         -27030            704          -2920           6862
   3840.00000000           6170          -2975           4482          10493
   3844.00000000         -27170            269           8810           3755
   3848.00000000          22147           8658            691         -10097
   3852.00000000           7700         -14809          28090          -3078
   3856.00000000          -5664         -10908          -4337          -1003
   3860.00000000         -23061          -6053          22434          30796
   3864.00000000          -9902         -16828           2771          -4990
   3868.00000000          -2705           2979          16542          -2771
   3872.00000000          25431          24115          13830         -16903
   3876.00000000          13541           6162         -13081          -8228
   3880.00000000          12841           6715          13686           1445
   3884.00000000          25723         -12320          12433          26110
   3888.00000000          21273           9498          -5976          -1701
   3892.00000000         -11240           7971         -12264          20588
   3896.00000000          -4808         -29260          15927          12266
   3900.00000000           3577         -20585         -44610           3612
   3904.00000000         -13873          11933           -812           6201
   3908.00000000          10521           6964          -3206          30915
   3912.00000000          25246          10333         -19829          -6573
   3916.00000000           6403          25119           2847         -11764
   3920.00000000          20224           7314         -17463          22384
   3924.00000000          30216          -2895          17745           3451
   3928.00000000          33145         -16183           -129          -8238
   3932.00000000          -5870         -16546           -484          13483
   3936.00000000          12938           5930           5525         -14327
   3940.00000000          21691          13749          28003          11903
   3944.00000000           -358          -7024          24838          -4537
   3948.00000000          11954         -31617          24659          25476
   3952.00000000          -6631           5844          20223         -20746
   3956.00000000         -12979         -21159           1649           1344
   3960.00000000          -2921           6466          -7524          29864
   3964.00000000           6223          26182         -13562          -6103
   3968.00000000          10359           2828         -13714          -5301
   3972.00000000           7733           7378         -19231          -8237
   3976.00000000          25902          25428           3906         -13637
   3980.00000000          13901           9156          24473            973
   3984.00000000          -4531           8379           2646          12556
   3988.00000000          -4008         -14127         -15527          14103
   3992.00000000         -15975          10227          46465           6845
   3996.00000000           7767          -8989          -3038            960
   4000.00000000          -8895          12989         -23352          11251
   4004.00000000          30523         -19024         -40737          18906
   4008.00000000          21041         -16059          -3562           7088
   4012.00000000          -5839          21908         -16323          13056
   4016.00000000          39384         -14632          15781         -10449
   4020.00000000          19044           7732          -3358           9515
   4024.00000000          13706           1932           5628         -10725
   4028.00000000          -9467         -18840          -8264          11288
   4032.00000000           3997          26482           6644          18310
   4036.00000000           5922            489          15116          12536
   4040.00000000           8676          15122           8740         -15964
   4044.00000000          10501          20964          -7163          -6659
   4048.00000000          11466          20737           5760          -1922
   4052.00000000          -1962         -39675         -12246          -2225
   4056.00000000          17582          -4385           3052          -8636
   4060.00000000           3909           5256         -21810          20745
   4064.00000000            161         -20692         -14222         -14678
   4068.00000000            107          14242          -9681           1650
   4072.00000000         -17322          18956          23771         -10099
   4076.00000000         -21014           7847          -4633          20325
   4080.00000000         -32382          -1808         -11988          11812
   4084.00000000          10859          -2804          -7297          28367
   4088.00000000           3398         -14894           2812           3544
   4092.00000000           9237         -25054           6982         -18606
   4096.00000000          20430           7366          13059          -9841
   4100.00000000          13980          14679           2800          -1752
   4104.00000000          12187          12954          -5981           4178
   4108.00000000          -2348           4274            426          -7099
   4112.00000000         -12714          -6455          33785          -5966
   4116.00000000          -9800          -9157          -7503            185
   4120.00000000           9663          -3896          -5022           -740
   4124.00000000         -11853          21880         -14440          10064
   4128.00000000           5419          -8560           9171          -6354
   4132.00000000           5745         -10768           2819           3275
   4136.00000000          -1356           6094           1437          -9526
   4140.00000000           1751          12712         -26705           5812
   4144.00000000          35227           7913          -6882            339
   4148.00000000           5518          -9716           7273         -21259
   4152.00000000          -1299          -7119          12292          -4438
   4156.00000000           2759            350           2843         -22067
   4160.00000000           1089           1581         -22636           8786
   4164.00000000          22509          11659           2078           9632
   4168.00000000         -12325         -11693           1046          -4007
   4172.00000000            916            595         -12578           5175
   4176.00000000          -4677           7668          -4977          18077
   4180.00000000          -1341           4131          -9695         -11389
   4184.00000000           3568          13787          -8564           8877
   4188.00000000          11105         -18288             22            714
   4192.00000000           2428          15505          21473          -5342
   4196.00000000           -501         -16135         -10320          -3818
   4200.00000000          -1656          17539           3199          -1136
   4204.00000000           3914           9495          10037          31212
   4208.00000000           3023          10271          -4158           1597
   4212.00000000         -17352           8452           3062          12262
   4216.00000000          -6929          -3835           9129          -1044
   4220.00000000          -1269         -14870         -19367           6206
   4224.00000000          15001           4252          -7102           2786
   4228.00000000           -932          -2961          -7007          28963
   4232.00000000           4552            596          17328          -5784
   4236.00000000          12410           8592          -8939          16110
   4240.00000000          -6031           3203          14563          -6637
   4244.00000000           3786          -1770          -2757          10396
   4248.00000000           4192            360           3879           2126
   4252.00000000           3094          13644           5178           3624
   4256.00000000           9428         -14942          -3010           1775
   4260.00000000          -6848          -1059          -5351          18764
   4264.00000000            272          -3947            241         -11791
   4268.00000000          -5064           3947           1003          -1732
   4272.00000000          14863         -10900           4878           1295
   4276.00000000           1878          12465           4149         -17676
   4280.00000000          17835            698          -1989          -6985
   4284.00000000          13099         -18718          -7873           -787
   4288.00000000          -3108          -2421           8850         -26589
   4292.00000000           2202           5470          -6203           7419
   4296.00000000           9027           3497          -9563          18947
   4300.00000000          -5234           7074          -1436           5983
   4304.00000000         -10751           4366          15904           2451
   4308.00000000          -6470          -6267           3244           -680
   4312.00000000           4773           8837         -12608          -9385
   4316.00000000          10403          14344          -4470           5786
   4320.00000000           5917          19294          -9949           1179
   4324.00000000          -7104           7623          14711           5590
   4328.00000000           -933          -3321           6724          -1371
   4332.00000000           8027            273           8745          -1968
   4336.00000000           1353           7497           7834           6133
   4340.00000000            317           4419          16291          10679
   4344.00000000          18953           8644          -6343           1472
   4348.00000000          10066           9158          -6891          -5809
   4352.00000000          -5171           3296           4949          20822
   4356.00000000           6696           -692          14186          12622
   4360.00000000          -1863          -5177          -6986           7365
   4364.00000000           6530          -4692          10929         -11507
   4368.00000000          -3301          -8990          -6379          -4106
   4372.00000000          -2251           3146         -12988           9243
   4376.00000000          14815          -9197           -981            717
   4380.00000000          -3975          13608           5549         -10341
   4384.00000000            907          -6905          -5556          -4160
   4388.00000000           9546           3966           3173           7397
   4392.00000000          -7165           -165         -13407          -1351
   4396.00000000          -7998           1654           2868           6220
   4400.00000000         -11644           1638           5404           5506
   4404.00000000           7959           5450          14345          -6468
   4408.00000000           4858           3166          16438            550
   4412.00000000           2697            216           5742           3735
   4416.00000000          13340          -2078           7705          -6693
   4420.00000000           4229           -443          -4399          -7250
   4424.00000000           6824          -5543          -2847          13889
   4428.00000000          16608           -385          -2902          -3791
   4432.00000000          -3132          -8607           5209         -12913
   4436.00000000          -2504          -1315           -656          -9857
   4440.00000000           8794           7868          -4359          11260
   4444.00000000          -9130          -3688         -12336          -1202
   4448.00000000          11472          -3466           1778          -2017
   4452.00000000           -372          24601          -5862          -2485
   4456.00000000           1595          -6587           7532          -7185
   4460.00000000           5028           7369         -10408            437
   4464.00000000           7408         -12599          -9327          -2048
   4468.00000000           7338          -6473         -10233         -19377
   4472.00000000           5993           3161            647           2914
   4476.00000000           5748            799          -7195         -10822
   4480.00000000          -3283           -683          -2594           4556
   4484.00000000           4225           1391           2606           -896
   4488.00000000            553           7561           2804            -99
   4492.00000000          -4200            342          15535           5104
   4496.00000000          -5502            350           1411          -1141
   4500.00000000          -7169          -7083          -4106          -2607
   4504.00000000           8329           8705           4514            574
   4508.00000000          -8149           -541          -4409          10114
   4512.00000000           2129          12516           5381           1931
   4516.00000000         -10791         -10460          -2922           2393
   4520.00000000          -7005          -7856           5096          -5208
   4524.00000000           8187          -2148          -2051          18031
   4528.00000000         -13250          -5996          -3368           -755
   4532.00000000          -1465           7800          -5184           4151
   4536.00000000          13535            -59           9193           1324
   4540.00000000          -6059          -8781           5777            778
   4544.00000000           1744           7482           1714          -3395
   4548.00000000          -8627           6247          -2679          -5567
   4552.00000000         -11989          -5093           3752          -1610
   4556.00000000           2607          -1176          -3853          -9453
   4560.00000000           4300          -6548           2016           7573
   4564.00000000            681            987            437          -2213
   4568.00000000          -8458          -3018          -3074          -2976
   4572.00000000           5619          -8176           4426           7190
   4576.00000000           4639           4517           8260          -7324
   4580.00000000          -4611           1916             44          -3100
   4584.00000000           3230           1428          -3128          -3194
   4588.00000000           2872          -5274            884           4634
   4592.00000000           2069          -1357           2040           7510
   4596.00000000           2417           3578          -3422           2443
   4600.00000000            753          10416            -88          -7918
   4604.00000000          -2806           5533          -9208         -11111
   4608.00000000            536           1583            747           -726
   4612.00000000           -831           -466           -495           3262
   4616.00000000          -1773          -1822           5409          -7430
   4620.00000000           5901          -5340          -3558           2827
   4624.00000000            750          13698         -10495           4030
   4628.00000000            635          -1632           1891          -3562
   4632.00000000          -2251           -953          10774           -341
   4636.00000000          -3518          -1908          -8375           6458
   4640.00000000         -12291         -10548           -925          -2444
   4644.00000000            141           2511          -1271          -3961
   4648.00000000           1945           1853           3481         -13839
   4652.00000000          -2730           5775         -11993           2387
   4656.00000000           3844          -9371           5499          13871
   4660.00000000           4922          -1004           5513           6905
   4664.00000000           1691         -13618           1481           1006
   4668.00000000            156          -2430          -5505          -1624
   4672.00000000           -441           -602           9949          -4561
   4676.00000000          -9082           5813           3557          10857
   4680.00000000            335            287          -4127           -592
   4684.00000000            180           6377           7510          -7460
   4688.00000000           4323          12989            400          11182
   4692.00000000            844           1234           2816           5521
   4696.00000000          -1800            225            677          -7484
   4700.00000000           8051          -8591          -1972          -6046
   4704.00000000          -4040          -3413          -2109            470
   4708.00000000          -6228           2428           7266          -1569
   4712.00000000          -1345          -8588           8864          -6421
   4716.00000000           2262           1568          -2036           5513
   4720.00000000           1266          -9529          -1055           2553
   4724.00000000           2201          -1174           1061           3624
   4728.00000000          -2162           4848           2732            580
   4732.00000000           1586              2           3998           6631
   4736.00000000          -3830          -7988           1531           3708
   4740.00000000           8240          -6295           -383           -250
   4744.00000000           1392          -1222           2827          -8413
   4748.00000000            756           5325          -6606          -1273
   4752.00000000          11343           4798           3692          -6930
   4756.00000000           6423           5379          -6747             90
   4760.00000000          -2919           1988           1670           1235
   4764.00000000          -1258         -10857          -4840            720
   4768.00000000          -3429            789           2211            902
   4772.00000000          -2530          -1805           3099           2380
   4776.00000000          -1823          -5712           2444           8121
   4780.00000000           6985           4282            350          -3148
   4784.00000000           -206          -5638           -181          -2040
   4788.00000000            660           2667           2827           4758
   4792.00000000           9485           -126           1071          -2139
   4796.00000000            864          -4009           2327           7572
   4800.00000000           7989          -8718           6423            441
   4804.00000000          -6635           3764           1348          -9339
   4808.00000000           2508           7853           1970          -5031
   4812.00000000            675          -3205          10658          -5274
   4816.00000000          -6551          -7319          -1556           1992
   4820.00000000            644          -2559          -3881            313
   4824.00000000          -5519          -3607           8719          -3080
   4828.00000000            872            329           5321          -6795
   4832.00000000           8812           1894           4642           3197
   4836.00000000           2498            147          -7301           5845
   4840.00000000          -8839          -1930          -1078          -6051
   4844.00000000            127           1836            793            250
   4848.00000000          -5767         -14035           3970          -3712
   4852.00000000          -1050          -1944           5345          -5237
   4856.00000000           2526            745           6492           -834
   4860.00000000          -4314          -5355           1393           -552
   4864.00000000           5341          -7271           1226          -3683
   4868.00000000          -4929           3342          -2072          -6799
   4872.00000000           1786          -5465          -1891           8803
   4876.00000000           1657           9438           4380          -6109
   4880.00000000          -1683           2915          -2824           6910
   4884.00000000          -8320           1328          -1386           6628
   4888.00000000          -3985           -129           2813          -2474
   4892.00000000          -8407           -699          -5559          -1339
   4896.00000000           5504          -3961          -1440           4068
   4900.00000000          -9259          -1716            -86           1030
   4904.00000000           2252           4638          -1572           1539
   4908.00000000          -2097           4867           -892          -5658
   4912.00000000           -135            -52           -593            811
   4916.00000000          -2841          -1501          -6633          -5885
   4920.00000000          -3139             -1         -10988           2012
   4924.00000000          -3610            788          -1463           5055
   4928.00000000          -1658          -3338          -2061           3145
   4932.00000000          -1761            949            284           2540
   4936.00000000           1536            271           -128          -3114
   4940.00000000          -2139          -1820          -3164          -1738
   4944.00000000           3022            180           2500          -2592
   4948.00000000           7238          -6379           2892          -4846
   4952.00000000            481          -3852           3615           2941
   4956.00000000          -5090           4933            205          -3153
   4960.00000000            606          -3294           -126           1419
   4964.00000000          -1066           4175          -6646          -4608
   4968.00000000          -8781            478           5489           2380
   4972.00000000            548          -2307           -312           -391
   4976.00000000           3472            225           -638          -6660
   4980.00000000          -4501          -1553            -73           2194
   4984.00000000          -2126           5678           3241           3797
   4988.00000000           2532          -5466            477           7078
   4992.00000000          -6000           1334          -1604          -1924
   4996.00000000           3718            121           -216           3818
   5000.00000000           1131          -4469           2264          -2340
   5004.00000000            889            257          -6328          -2503
   5008.00000000           2104           1401          -5319           5693
   5012.00000000           -239           1673           2190           1210
   5016.00000000           1087            700          -1132          -2952
   5020.00000000           -784           1646          -1753           3540
   5024.00000000          -2223          -4667            467           3049
   5028.00000000           1247          -5206           1024           1292
   5032.00000000          -2924          -1563           -332          -4142
   5036.00000000           2835          -1162           1010           7847
   5040.00000000            391          12283            991           -321
   5044.00000000           1332          -4015          -2067           5917
   5048.00000000           -960           2210          -1281          -5901
   5052.00000000           2187          -1181          -2926          -1606
   5056.00000000           -235          -5050           2036          -4301
   5060.00000000           -302           2685          -3387          -4691
   5064.00000000           2712            282            654           3861
   5068.00000000           5667            -49           3175          -3021
   5072.00000000           -426           5298            398           1475
   5076.00000000          -1739          -8121          -1378           5250
   5080.00000000          -4793           1550          -2568           -647
   5084.00000000           2452            158            -39            329
   5088.00000000          -1829            -46          -2882           4523
   5092.00000000           5361          -1780          -3775           1776
   5096.00000000            240          -3998          -4943          -4476
   5100.00000000           1626           2373           2850           3909
   5104.00000000           3198           1447           4985           -754
   5108.00000000            300           1307           -386          -3351
   5112.00000000           -115          -4117          -2371           2102
   5116.00000000           -109            624          -2701           2251
   5120.00000000           1961          -6476          -2980          -4726
   5124.00000000           1595          -1807           -863          -2607
   5128.00000000          -1018           -858           1697          -3175
   5132.00000000           1968          -2042           3510           -176
   5136.00000000           3991            406           3126          -2161
   5140.00000000           1289          -2422            662            995
   5144.00000000            742          -2113          -3468          -2171
   5148.00000000           1250           2340          -1633          -2465
   5152.00000000          -1355           -614           7825            723
   5156.00000000          -3890           2714            263          -6261
   5160.00000000           2301          -2120           -534           5694
   5164.00000000          -3599          -1699             44          -1474
   5168.00000000            494          -2232            940           1562
   5172.00000000          -1282          -5347          -1725           4295
   5176.00000000           7282          -2830          -2249           4465
   5180.00000000           1248           1849           1116           8425
   5184.00000000          -1874           1446           6486           2923
   5188.00000000            535           2156            545           -451
   5192.00000000           1673           -240          -2344           -791
   5196.00000000           2401          -1309           1725           1338
   5200.00000000          -2778          -1081           1433          -1650
   5204.00000000           2053          -3605           -770          -4317
   5208.00000000           3579           2642           -942           1657
   5212.00000000          -3708            270          -4857            857
   5216.00000000          -3625            924           1383           1447
   5220.00000000            -36            985           1063            117
   5224.00000000          -3306           2404           3422          -4242
   5228.00000000          -3478           1818            462          -1839
   5232.00000000           1259           2058          -2860          -1531
   5236.00000000           -946          -1587            351             11
   5240.00000000            519           2509            610           5622
   5244.00000000           -230           1829           -930            894
   5248.00000000           2501           5197           -473          -2022
   5252.00000000          -5031            431          -3031          -2160
   5256.00000000           -660           -573           2307           -864
   5260.00000000            872           -393          -2841           1319
   5264.00000000           1247           2371           3269          -3318
   5268.00000000          -1534           1340           1365          -1580
   5272.00000000            465          -4818            538          -1939
   5276.00000000           1234          -3797           -141           1791
   5280.00000000           2140            -64           -117          -3141
   5284.00000000           -572           3938          -1606           -160
   5288.00000000          -3095           3927           -322            667
   5292.00000000           -193           -358          -5457          -2998
   5296.00000000           2670            621            290            693
   5300.00000000          -3267          -1164           1645           1989
   5304.00000000          -1856           3281           -445            734
   5308.00000000           1691          -4236          -2380          -3991
   5312.00000000          -4208          -4073           3792          -1846
   5316.00000000           1089           4917            862           -557
   5320.00000000          -3612           3166              7           -283
   5324.00000000            803          -2348           3536           1762
   5328.00000000           3800           1754           1223           5434
   5332.00000000            482           5493          -1428            637
   5336.00000000          -4574           1423           -225          -3282
   5340.00000000          -2416          -3869          -2525          -4913
   5344.00000000           4463          -1531          -1717           3678
   5348.00000000           -922           -761           -623          -4463
   5352.00000000            314          -1490          -1970            794
   5356.00000000           -271            -23             53          -3878
   5360.00000000           3703           1977          -1906           2582
   5364.00000000           1401          -2068           -994          -1366
   5368.00000000           2361           1265           3389          -1494
   5372.00000000           -596           3881            341          -2587
   5376.00000000           2201           2891          -2442          -1287
   5380.00000000           2642          -2503            -96          -1184
   5384.00000000           1885           1676            632          -2596
   5388.00000000          -1040            374          -2260            -98
   5392.00000000          -1944          -1317           1941           5956
   5396.00000000           1227            738          -2152          -1289
   5400.00000000          -1815            337           1170           -143
   5404.00000000           -978          -2973          -3286          -2390
   5408.00000000           1099           3279          -1613           2656
   5412.00000000          -1512          -1155             63           -860
   5416.00000000          -3640           2282           1247          -1420
   5420.00000000            539          -1638          -1882           1527
   5424.00000000          -4327           2093          -2426           -430
   5428.00000000          -2497           1307           1114           1887
   5432.00000000           1211            385           1576          -1584
   5436.00000000           -539            690           2192            402
   5440.00000000           5694            994           2340           2162
   5444.00000000           3063          -2594            703          -3474
   5448.00000000           -497           -753          -3343            466
   5452.00000000            829           -804           2325            171
   5456.00000000          -1508           -909           2034          -2186
   5460.00000000           -162           1307           1019           1665
   5464.00000000           -217          -3622           -456          -2532
   5468.00000000            827            583           -433           -924
   5472.00000000             51           2639          -1817            -46
   5476.00000000          -1455           -795            780           -105
   5480.00000000          -2474           -108            114           1009
   5484.00000000          -2620          -1140            322            159
   5488.00000000           2285             56          -2241           1769
   5492.00000000           -665           -660           1505            347
   5496.00000000           4285            474            177          -1004
   5500.00000000           2984            766          -4087           1602
   5504.00000000            265           -683           1487           -729
   5508.00000000            927            -88           2416            232
   5512.00000000           1226           2837             25            588
   5516.00000000          -3833            801          -1128          -1372
   5520.00000000           -218          -2922            531            166
   5524.00000000          -2521           1494            198            734
   5528.00000000            823           2879          -3927           2382
   5532.00000000          -1361            209            956           -710
   5536.00000000          -1359            602           -807           2299
   5540.00000000           1622           -165           -287            516
   5544.00000000            325          -1649            387           -227
   5548.00000000           1659          -1129           1362           -397
   5552.00000000           1008          -1424          -1793           1708
   5556.00000000            811           1622          -1326           1394
   5560.00000000          -1757           1311           2619          -3507
   5564.00000000           -383           -321          -3381           4066
   5568.00000000          -2670            934           1283           -628
   5572.00000000           -136           -351           -655            172
   5576.00000000           -413           1085           1385          -1440
   5580.00000000           -462           1081          -1954           1786
   5584.00000000           1281           -585          -1537          -1193
   5588.00000000            815            859          -1242           -782
   5592.00000000           -630           1327          -1649           -254
   5596.00000000          -1323           -778           -314           1833
   5600.00000000           -172          -1048            664           3039
   5604.00000000          -1104          -1575            475          -1132
   5608.00000000          -1692           -663            -66            343
   5612.00000000          -1299          -1598            895          -2104
   5616.00000000          -2106             62          -2035           2826
   5620.00000000            -42            187            464           1707
   5624.00000000            638           1098           -820            554
   5628.00000000            431          -1319          -2005           -162
   5632.00000000           1966           1100           -271          -1921
   5636.00000000          -1714          -2535          -1116            290
   5640.00000000           -243            502          -1749           1288
   5644.00000000            284           -335           -532           1275
   5648.00000000          -1186           -273           -964           3375
   5652.00000000           1184           1345            160          -1323
   5656.00000000           -332           -328            110           -788
   5660.00000000            -73           -988           3165           -500
   5664.00000000            651          -2486            908           1333
   5668.00000000             64            118          -1843           2436
   5672.00000000           1118           1775            648           1014
   5676.00000000            358          -1764            581           -882
   5680.00000000          -1816           -457          -3020          -2112
   5684.00000000           1269          -1976           -517            927
   5688.00000000            542           3202           -119           1197
   5692.00000000            816           1405            135          -1535
   5696.00000000           -116            232           -678           -177
   5700.00000000           1391            265            342           -707
   5704.00000000            421          -1957          -1635            727
   5708.00000000           1427           1190           2444          -2828
   5712.00000000          -2816           1661           1470           2344
   5716.00000000          -1026            -69          -2142          -3443
   5720.00000000           -317           1039           1236            685
   5724.00000000           -601            611           -631            555
   5728.00000000           -148            -65            940           1554
   5732.00000000            755           -779            755            515
   5736.00000000          -2250           1961            634          -1469
   5740.00000000          -1334           2125          -1626          -1302
   5744.00000000           3493           -447           -574           -638
   5748.00000000           1054          -1422          -1531           2260
   5752.00000000            583            239           -342           -583
   5756.00000000           2363           -302             -1            -92
   5760.00000000            479          -1445            196           1315
   5764.00000000          -2172          -1859           2485           -891
   5768.00000000            404          -1174            287            374
   5772.00000000            -52           1469          -1124             11
   5776.00000000            504            432            366          -1066
   5780.00000000          -1546           1988            502           -929
   5784.00000000             45            667           -499           1890
   5788.00000000            255           -395          -1172          -2071
   5792.00000000           -885          -1720             94           -627
   5796.00000000           1435           3888           -559           2030
   5800.00000000            668            476           -972          -1777
   5804.00000000          -1670           -825           -709           -245
   5808.00000000            349           1520           -616           -236
   5812.00000000          -1620            358           -144          -1172
   5816.00000000           -409          -1628           1747           1407
   5820.00000000          -2340             42            448           -844
   5824.00000000          -1138           1427             90           -367
   5828.00000000            362           -478           1038           1007
   5832.00000000            341           -416           2708           -682
   5836.00000000            184           1021           -963           1897
   5840.00000000           2456           1755              0            626
   5844.00000000           -611            433           -544           2528
   5848.00000000          -1166            701           2179           -709
   5852.00000000           1414            762          -1377          -1415
   5856.00000000           -634           1216           -365           1368
   5860.00000000           1320           -282           -406            545
   5864.00000000            -22           -859            518            -67
   5868.00000000           1300           1688           -884          -1646
   5872.00000000           -896            621           -413           -373
   5876.00000000          -1810          -2232           1109          -1053
   5880.00000000           1651          -1121            116           -509
   5884.00000000           -338            330           1903            640
   5888.00000000            879             -7           -712           -710
   5892.00000000           -456            182           1401            344
   5896.00000000           1088           -134           -441          -1577
   5900.00000000          -1164            583           -198           -388
   5904.00000000           2232           1660            312           1458
   5908.00000000            154           -913            250            825
   5912.00000000            144          -1363            945            735
   5916.00000000          -1596            541           -416            685
   5920.00000000            -70          -1937            467           -350
   5924.00000000           1016            382            683           1257
   5928.00000000          -1530            285           1892           1043
   5932.00000000            975           1089           -818          -1268
   5936.00000000             19            520            491           -790
   5940.00000000          -1001           1148          -1038           -533
   5944.00000000            828           1398            476            848
   5948.00000000           1649             -5           -352           1259
   5952.00000000            594            864           1913          -1644
   5956.00000000           -767           1144            837            271
   5960.00000000          -1600          -1258            689          -1242
   5964.00000000           -366            290          -2386           1713
   5968.00000000           1497           1674            287            232
   5972.00000000           1303           -216            328           -136
   5976.00000000           -705          -1335           1778          -2237
   5980.00000000            835           -439          -2562          -1286
   5984.00000000            172           -625           -621           -128
   5988.00000000           -874           -718           1315            919
   5992.00000000             29            490            996           1339
   5996.00000000           1443             24          -1481            759
   6000.00000000            -86           -519             74           1863
   6004.00000000           1247           1175            504           -172
   6008.00000000           -270            866            169           1451
   6012.00000000          -1322            492            945             39
   6016.00000000           -696           -813           -361           -600
   6020.00000000           -641           1619            804            767
   6024.00000000           -939            312            759            766
   6028.00000000           -326           -172           1085           1179
   6032.00000000          -1032           1818           -735           -431
   6036.00000000           -439           -849           -496           -604
   6040.00000000            547           -313          -1145            872
   6044.00000000          -1357            -40           -657            172
   6048.00000000            577          -1913            939            305
   6052.00000000           -310           -409            410           -147
   6056.00000000           -455          -1592           -432            375
   6060.00000000          -2513           1249            780            680
   6064.00000000             17           -229           -540          -1061
   6068.00000000              4           -938           -915           -527
   6072.00000000           -237          -1000           -282           1071
   6076.00000000            467          -1429           -711           -442
   6080.00000000           -798           -711          -1085           -129
   6084.00000000           -192           1427            792            889
   6088.00000000           -210          -1219          -1357           -999
   6092.00000000            968           -786           -728            741
   6096.00000000           -515            414            539            944
   6100.00000000           -630            705           1208            506
   6104.00000000            -43            422           -212            613
   6108.00000000            -13           -800            285           2535
   6112.00000000           -913            224           -333            164
   6116.00000000          -1157            440            343           -245
   6120.00000000           -696           -373           -318             17
   6124.00000000           -168            847            195           -935
   6128.00000000           -449            210           -390           -314
   6132.00000000            430           -961            158           1148
   6136.00000000           -730           -113           -130           -106
   6140.00000000          -1160           -909           1729          -1491
   6144.00000000           -952            439           1380            294
   6148.00000000          -1011           -194            128           -267
   6152.00000000            669            419           -316           -755
   6156.00000000            -27          -1300           -447           -594
   6160.00000000             98           -136           -967            215
   6164.00000000          -1662            839            804            779
   6168.00000000            -54           -612          -1280           -502
   6172.00000000           -894           -411           -958           1345
   6176.00000000          -1522           -880            249            567
   6180.00000000           1760           -348           -491            -66
   6184.00000000            -58          -1153            147            415
   6188.00000000           -461           -569            489          -1592
   6192.00000000            183            562            711            415
   6196.00000000          -1128           -521           -992            350
   6200.00000000            333           -634            746           -345
   6204.00000000           -605            310          -1760            -94
   6208.00000000           -110            -31          -1234            873
   6212.00000000            405             40            428           -692
   6216.00000000           -562           2058           1049            538
   6220.00000000          -1182            369           -140          -1065
   6224.00000000           -251            260           -686            175
   6228.00000000            550             89            491            162
   6232.00000000            -80            536            664            641
   6236.00000000           -332          -1010           -227           1507
   6240.00000000            377           -583           -992            130
   6244.00000000           -683            840              3            285
   6248.00000000           -382            435           -213           -613
   6252.00000000           -483           -647           -446           1517
   6256.00000000            218           -237           -728           -268
   6260.00000000           -948           -652          -1466            207
   6264.00000000          -1255           1042            388           -333
   6268.00000000            714           -530            158            628
   6272.00000000          -1339            -73          -1069           2011
   6276.00000000           -795           -410           -193           -906
   6280.00000000           -622            237           -719           -259
   6284.00000000            791           -133            489            451
   6288.00000000            217            800            594           -749
   6292.00000000              7            439            -67           -796
   6296.00000000           -660           1077             77           -300
   6300.00000000            535          -1371           -167           -326
   6304.00000000            344           -876            122           -610
   6308.00000000           -155           1060           -188            785
   6312.00000000           -265           -395           -368          -1331
   6316.00000000           -289           -854            677            135
   6320.00000000            750           -772            -84            115
   6324.00000000            146            226            757            579
   6328.00000000           -595            259           -548           -755
   6332.00000000           -147          -1027           -264          -1169
   6336.00000000            108           -424            126           -963
   6340.00000000           1100            720            648           -581
   6344.00000000            769           -206            -87           -219
   6348.00000000            177            188            236            815
   6352.00000000           -984            118           -240            306
   6356.00000000            -24           -466          -1187           1385
   6360.00000000           1603            219           -576           1474
   6364.00000000            121           -570           -101          -1038
   6368.00000000            257           -467           -259           -375
   6372.00000000            193             12           -470            -48
   6376.00000000            749            687           -585           -207
   6380.00000000           -956           -832           -326           -165
   6384.00000000           -332            636            164           -502
   6388.00000000           -757            820          -1079            375
   6392.00000000           -472           -754            255             80
   6396.00000000           -442            151           -441           -249
   6400.00000000           -186           -408            157           -314
   6404.00000000           -607          -1177            525           -843
   6408.00000000            261            308            -67           -391
   6412.00000000            771           -535           -528            571
   6416.00000000            625            463            646           1155
   6420.00000000           -413            813            571            -79
   6424.00000000           1276           -539            434            268
   6428.00000000            183            872            225            720
   6432.00000000            283            270             53             65
   6436.00000000            371          -1249            393            321
   6440.00000000             75            893            564           -716
   6444.00000000          -1045            209            257           -226
   6448.00000000            371            189           -293            424
   6452.00000000            377             14            -65           -112
   6456.00000000            411           -971           -724          -1208
   6460.00000000             87            490            244             61
   6464.00000000            193          -1140           -219           -485
   6468.00000000           -905           1134            433           -181
   6472.00000000            300           -339           -219           -501
   6476.00000000           -299            898            167           -451
   6480.00000000            -90           -144            416            176
   6484.00000000            519            497           -442           -965
   6488.00000000           -524              3            572           -118
   6492.00000000            860              3            112           -693
   6496.00000000          -1005           -816            -86            706
   6500.00000000           -331            190             52            614
   6504.00000000            717           -320           -888           -616
   6508.00000000           -803            447           -657           -238
   6512.00000000            364            446            704            324
   6516.00000000           -443           -494            275            490
   6520.00000000           -314           -450            798            723
   6524.00000000             34            -77            526            206
   6528.00000000            281           -220            -98           -377
   6532.00000000             20            174           -636            -57
   6536.00000000           -585            304           -226           -133
   6540.00000000             95           -201           -238            941
   6544.00000000            187            -57            327            824
   6548.00000000           -222           -405             55           -231
   6552.00000000          -1012            147            -15           -634
   6556.00000000            179           -177           -645             99
   6560.00000000           -672           -469            140            -54
   6564.00000000            -63           -741            463            230
   6568.00000000           -623            175           -273            442
   6572.00000000           -127            112            116           -169
   6576.00000000            193           -284             95           -141
   6580.00000000           -529            582           -279            293
   6584.00000000           -133            660           -241           -537
   6588.00000000            146            135            242             -7
   6592.00000000            567           -322           -462           -564
   6596.00000000           -491            160           -161            314
   6600.00000000            128           -693            905           -341
   6604.00000000            435            490           -571           -298
   6608.00000000           -275           -266           -901           -260
   6612.00000000           -381            296            196           -282
   6616.00000000           -105            197            521             76
   6620.00000000           -396            202            171           -400
   6624.00000000            153           -202           -117           -391
   6628.00000000             74           -390           -537           -730
   6632.00000000           -159           -182             62           -177
   6636.00000000           -468             58           -560           -392
   6640.00000000            177           -162             -6            591
   6644.00000000            139           -378           -144            154
   6648.00000000           -417           -169            233            413
   6652.00000000           -334            -47           -302           -247
   6656.00000000           -141           -118           -314           -668
   6660.00000000            364           -453            -50            490
   6664.00000000           -755            373            198            -89
   6668.00000000            361           -612           -623             27
   6672.00000000           -254            -28            320            -26
   6676.00000000            -25            529            -28            -91
   6680.00000000           -345            257            -46             45
   6684.00000000            512           -606           -773           -198
   6688.00000000           -317            296           -601            169
   6692.00000000           -527           -432           -547           -134
   6696.00000000           -524            352           -452            150
   6700.00000000           -746            375             43             -7
   6704.00000000            272           -366           -312           -589
   6708.00000000             72           1206           -355            192
   6712.00000000           -549             13             62           -104
   6716.00000000            -34          -1084              2            159
   6720.00000000             31             83            128            400
   6724.00000000            156           -714            -28           -331
   6728.00000000           -648           -306            817          -1040
   6732.00000000              6            400             33            477
   6736.00000000            459           -569           -773            308
   6740.00000000             67            133           -167           -372
   6744.00000000             22           -260            -87             34
   6748.00000000            -47           -155           -286              9
   6752.00000000            -94            265           -187           -527
   6756.00000000            903           -541            111           -297
   6760.00000000           -226            -13           -448             49
   6764.00000000            679           -315           -102           -348
   6768.00000000            412            199          -1007           -215
   6772.00000000            154           -272           -631            252
   6776.00000000            147           -377           -252            227
   6780.00000000           -908            119             25           -310
   6784.00000000           -467            232            272            -40
   6788.00000000            373           -966             55           -706
   6792.00000000             92           -169           -435           -452
   6796.00000000            251             -2           -391           -328
   6800.00000000            602            -33            -61             27
   6804.00000000             42           -126            482            257
   6808.00000000           -458           -423           -201            140
   6812.00000000             73              1            116            156
   6816.00000000             70            237             -8           -495
   6820.00000000            -82            -38           -679            255
   6824.00000000             92             23           -420           -280
   6828.00000000            149            239           -246            811
   6832.00000000           -753            109            498            162
   6836.00000000           -697            233           -181           -279
   6840.00000000            411           -478           -319            102
   6844.00000000           -898           -195           -138           -258
   6848.00000000            223            277           -102            173
   6852.00000000            341           -339           -122            220
   6856.00000000             92           -470             30             35
   6860.00000000            246           -957           -262            137
   6864.00000000           -235           -532           -401            236
   6868.00000000           -734           -698            378            106
   6872.00000000           -244            192           -272            347
   6876.00000000           -257            184             38             20
   6880.00000000           -350            -43           -175           -215
   6884.00000000           -281           -552             13           -420
   6888.00000000           -529           -285           -429            189
   6892.00000000           -605            -19             -3            -66
   6896.00000000            302           -592           -373             55
   6900.00000000            133           -264            -97            151
   6904.00000000             -0           -459            353            248
   6908.00000000             52           -228            155           -210
   6912.00000000              7            162            308             99
   6916.00000000            -43           -344           -137           -240
   6920.00000000           -540           -712            226           -501
   6924.00000000           -183           -450           -275           -139
   6928.00000000           -175           -468            275            -84
   6932.00000000           -306           -416            -45             71
   6936.00000000            273             59            291            421
   6940.00000000            331           -573           -167            203
   6944.00000000            -56             -4             53             32
   6948.00000000            142            502            -19            259
   6952.00000000           -241            -70           -104            159
   6956.00000000             62           -577            -16           -414
   6960.00000000            -81           -272            112            354
   6964.00000000            149           -293            338            253
   6968.00000000             41           -201            -95           -478
   6972.00000000            105           -253           -459             32
   6976.00000000           -352            -86            240           -225
   6980.00000000           -178           -574            -86           -715
   6984.00000000            267             54            569             -6
   6988.00000000           -440           -110            287           -129
   6992.00000000            -64           -276           -250           -361
   6996.00000000           -227            117            -43           -113
   7000.00000000           -347           -286           -700           -155
   7004.00000000           -669           -181           -270            -19
   7008.00000000           -241            255            -13            323
   7012.00000000            442            -93           -172           -204
   7016.00000000            -25            -50           -237           -128
   7020.00000000           -278            -39           -103            -80
   7024.00000000            -80           -199           -344           -207
   7028.00000000            140           -278           -123           -297
   7032.00000000           -184           -610           -684            126
   7036.00000000              4            199            -41           -132
   7040.00000000            -28           -137            182           -447
   7044.00000000            -65             -7           -100           -268
   7048.00000000           -286            -45            220            188
   7052.00000000            -55            -74            275            122
   7056.00000000            -99            131            100           -240
   7060.00000000           -284           -220             99            363
   7064.00000000           -348           -320            213            -53
   7068.00000000            367           -379            122           -205
   7072.00000000           -127            -82            183           -363
   7076.00000000           -117            -17           -412            -19
   7080.00000000           -248             96           -178            -37
   7084.00000000           -272            340             38           -199
   7088.00000000            -97           -323              1           -298
   7092.00000000            262            308            -72           -218
   7096.00000000             54            -90             63           -280
   7100.00000000           -347           -276           -249           -297
   7104.00000000            386           -131             -7           -378
   7108.00000000            -78            -96           -242            239
   7112.00000000           -157           -290            444           -366
   7116.00000000           -448            183           -125            -60
   7120.00000000           -376           -126             44             79
   7124.00000000           -129           -163           -114           -306
   7128.00000000            128           -434            229             11
   7132.00000000            150            252            -54             71
   7136.00000000           -165           -205            311            -57
   7140.00000000           -131             88             -8           -219
   7144.00000000            136             62           -141           -402
   7148.00000000             64             28           -603            -65
   7152.00000000           -393           -101           -676           -116
   7156.00000000            -81           -255            126             79
   7160.00000000           -307           -392           -314             76
   7164.00000000           -301            215              1           -241
   7168.00000000            132             24            110            -14
   7172.00000000           -208            177            282            -26
   7176.00000000            124           -158            299            169
   7180.00000000            320            107            209             68
   7184.00000000           -342           -352            233            184
   7188.00000000            122           -124             -7            -40
   7192.00000000            -50           -262           -340           -224
   7196.00000000             97           -148            124           -238
   7200.00000000            306            -79           -156           -320
   7204.00000000            -85            -48           -243            127
   7208.00000000           -375           -470             29            107
   7212.00000000           -242            -77            111           -288
   7216.00000000             89            136             64           -146
   7220.00000000            -94           -195            226            126
   7224.00000000             59            125           -150           -158
   7228.00000000            -59           -149           -481            -51
   7232.00000000           -211           -363             -6            -62
   7236.00000000           -269            133           -210           -339
   7240.00000000            153             77             23            -41
   7244.00000000             64           -149              2             60
   7248.00000000           -327           -175           -118            101
   7252.00000000             23           -126           -116            -62
   7256.00000000           -134           -246             32            166
   7260.00000000            -50           -227             50           -210
   7264.00000000            135           -126             11            189
   7268.00000000           -128            -95             26            192
   7272.00000000            -75           -170           -147            -25
   7276.00000000             83           -275             17             -4
   7280.00000000           -340             94            -49           -246
   7284.00000000           -184           -415           -169             35
   7288.00000000           -243            -46           -238           -224
   7292.00000000            102           -270            -85            -63
   7296.00000000           -251             15             64           -282
   7300.00000000            -80           -102              5            -46
   7304.00000000             20              0            238           -326
   7308.00000000            -56           -261           -108           -400
   7312.00000000             -9           -203            138           -146
   7316.00000000            123           -321           -407             84
   7320.00000000             54            107           -133            137
   7324.00000000            -76            -35           -149            155
   7328.00000000            124           -110           -108             81
   7332.00000000           -102           -119             26           -117
   7336.00000000            282            224              4             67
   7340.00000000             14           -367           -118            -64
   7344.00000000             55           -223             53            -68
   7348.00000000            156            -28            390            237
   7352.00000000            113            -47           -197            118
   7356.00000000            -77            168           -462            -46
   7360.00000000             17              2            206            -63
   7364.00000000            167             81            -68           -407
   7368.00000000           -239            272           -102           -158
   7372.00000000            163             24           -208            -47
   7376.00000000            -70             85           -111            -21
   7380.00000000            106           -107            -19             10
   7384.00000000           -133           -285            186             13
   7388.00000000           -100           -128             -9            -87
   7392.00000000            -66           -219           -138           -386
   7396.00000000           -217            196            107            235
   7400.00000000            -54           -124             38           -208
   7404.00000000            -59            -98           -366             41
   7408.00000000            167           -267           -205             33
   7412.00000000           -194             -7           -227           -162
   7416.00000000           -184             75             25            -51
   7420.00000000             52           -190            -23           -317
   7424.00000000            113            251            145            -59
   7428.00000000             10              7            103             42
   7432.00000000             76             23           -308            101
   7436.00000000            139            -62             -5           -253
   7440.00000000            121             30           -171             75
   7444.00000000            281            235            -86           -127
   7448.00000000            183            -58            -85           -165
   7452.00000000           -154            223            -44            -28
   7456.00000000           -123            320           -160            -25
   7460.00000000            -92             60           -137           -270
   7464.00000000             14            -18             -8           -113
   7468.00000000            -25           -152             65             42
   7472.00000000             99            -23            -83            -63
   7476.00000000           -185             15           -229            -94
   7480.00000000            122           -158            119            192
   7484.00000000            -30             49             68            -32
   7488.00000000             94            -29           -135            166
   7492.00000000           -257            -94            256           -140
   7496.00000000            313            185             29           -264
   7500.00000000             51           -109             46            -40
   7504.00000000            -43             -5           -113            137
   7508.00000000           -195           -108           -203            -33
   7512.00000000            -16            -93            -35           -197
   7516.00000000            -60             84           -145            -99
   7520.00000000            -15             94           -182            -51
   7524.00000000            100           -102            -75            -15
   7528.00000000              6           -172           -277             74
   7532.00000000              4           -112           -124           -270
   7536.00000000            -59           -167           -155           -208
   7540.00000000           -118           -146             20             -3
   7544.00000000           -313           -174            -99           -155
   7548.00000000             42            -31            -35           -149
   7552.00000000             18             26            -76            -28
   7556.00000000            -19            -13              3            -70
   7560.00000000            -97             79           -125            133
   7564.00000000            -25             41             64              3
   7568.00000000            -11            -62           -194            -64
   7572.00000000            -64             62             75           -149
   7576.00000000           -378            -12             -8            162
   7580.00000000            -91           -105            189             29
   7584.00000000             22            -39             40            -65
   7588.00000000            142            -50            -84             61
   7592.00000000           -128             35           -135           -111
   7596.00000000             84            -72           -124           -147
   7600.00000000              6             22            -19             -4
   7604.00000000             17              2             50             -6
   7608.00000000           -163           -105            -19           -135
   7612.00000000           -102            -98             59            106
   7616.00000000           -195             79            -95           -144
   7620.00000000             15           -138            -80           -205
   7624.00000000             -7             30             28             68
   7628.00000000            -83             10            146            -53
   7632.00000000            -56           -125            -57             21
   7636.00000000             60            -12            137            -84
   7640.00000000           -243            -87            -95             21
   7644.00000000             81             40             33             61
   7648.00000000            -50            -70             29           -115
   7652.00000000              9           -129            188            -78
   7656.00000000            -54             88           -104            -38
   7660.00000000             54            -25             74            -64
   7664.00000000            171             -2            130            -39
   7668.00000000            -98            -81            -45            -44
   7672.00000000            -15             -5            -97            101
   7676.00000000             52             89            131           -107
   7680.00000000             -8            109            -63            -11
   7684.00000000           -194           -117           -148            -95
   7688.00000000           -119           -127            -33           -165
   7692.00000000            213             55             22              4
   7696.00000000            -44              2           -162              4
   7700.00000000           -177           -171             33             49
   7704.00000000           -155             70           -164             -2
   7708.00000000            238            -10            -90            -38
   7712.00000000           -169             60            -69            -65
   7716.00000000           -185             -5           -131             97
   7720.00000000             11           -126             37             56
   7724.00000000             66             33           -139            -35
   7728.00000000            168            -49             18             15
   7732.00000000             53           -114            -67            -24
   7736.00000000            -58           -114           -232             12
   7740.00000000             34           -133            -67            108
   7744.00000000             81            -45            -27             17
   7748.00000000            156             18            -97            -60
   7752.00000000           -160             36            156             31
   7756.00000000             18            -33            -10             -4
   7760.00000000            -42           -126            -67             90
   7764.00000000            -61            -24            -45           -111
   7768.00000000            224            131             75           -126
   7772.00000000             24             43             49            100
   7776.00000000             13            151             11             10
   7780.00000000           -204            -83           -130             58
   7784.00000000             69             42            -86            -86
   7788.00000000            -13            -57             81             63
   7792.00000000            -74            -13             31           -230
   7796.00000000           -120             86             36             95
   7800.00000000             70             93            -34            -73
   7804.00000000             -4            153             20            110
   7808.00000000           -184             15             -9            101
   7812.00000000           -108            -72             -9            -83
   7816.00000000             76            -12             58           -128
   7820.00000000            -43           -104             28             76
   7824.00000000            -54            -37            -42             49
   7828.00000000             45             44             -9            -20
   7832.00000000             -6             26             77            -45
   7836.00000000             72             25            127             23
   7840.00000000             41             -4            -76             33
   7844.00000000              7             -2            -24            -22
   7848.00000000            -23             67            -55             14
   7852.00000000           -126            -14            -92           -114
   7856.00000000            -86            -23            -14            181
   7860.00000000            -40            126            -37             53
   7864.00000000             67             58              4            -44
   7868.00000000             29             53              4             18
   7872.00000000             31            -44            -25            -32
   7876.00000000           -187            -68           -103           -114
   7880.00000000            102            -30            126              4
   7884.00000000             30            -75             50             69
   7888.00000000           -113            -99            -22             56
   7892.00000000            -52            -36              6             48
   7896.00000000            104           -107            -10             32
   7900.00000000             16             35            119            116
   7904.00000000             32           -105            -55             28
   7908.00000000             53           -200             73             81
   7912.00000000           -154            -15             13             62
   7916.00000000             85             12            -33              3
   7920.00000000            -55            -51            -84            -46
   7924.00000000            -50            -12              8            -39
   7928.00000000            -82            122            108            -74
   7932.00000000            -97            104            -51            100
   7936.00000000            -97             55             58              2
   7940.00000000             49            -52            -88            176
   7944.00000000            -77            -78             18            -35
   7948.00000000             82             42             31             22
   7952.00000000            -77           -106              9             96
   7956.00000000            -50             47             97             77
   7960.00000000             79            219             34             73
   7964.00000000            -22              1           -137            -67
   7968.00000000             96            -58             30            -58
   7972.00000000             55             -8           -152            -32
   7976.00000000            -94            -56             19            107
   7980.00000000            -86             52            -73             85
   7984.00000000            -14            -39             43           -113
   7988.00000000             29             51            -18           -105
   7992.00000000            -40             83             74             72
   7996.00000000            -30             28             22            -86
   8000.00000000            -18           -112             58            -49
   8004.00000000            162            -79            -83            -18
   8008.00000000             68             40              1             55
   8012.00000000            -98             -9             19            124
   8016.00000000             33             -3             26             43
   8020.00000000            -46             45             -1             16
   8024.00000000            -33             56             -2              7
   8028.00000000            -43            -68             22             76
   8032.00000000             55             32            120             50
   8036.00000000             37            108              1             52
   8040.00000000            -67            -86             19            126
   8044.00000000            -79            -52             57            -87
   8048.00000000             38            -33             22              2
   8052.00000000            -49             21              3            -10
   8056.00000000             18             -5             75            105
   8060.00000000            -60              6             49            -57
   8064.00000000             82            -20             65             53
   8068.00000000             32             63             -9             49
   8072.00000000             82             50            -29             20
   8076.00000000             49             14            -74            -96
   8080.00000000              4             17            -27            124
   8084.00000000             18             46              5            101
   8088.00000000           -118             81            -27             59
   8092.00000000             84            -46            -63            -18
   8096.00000000             51            -84             37            127
   8100.00000000            -10            -26             -5             -8
   8104.00000000            -48             83             49             10
   8108.00000000             14             31             -3            -68
   8112.00000000             71           -171            -60            -80
   8116.00000000            -63            -94             13             61
   8120.00000000             -6            -19           -163             94
   8124.00000000            -37             19           -130             94
   8128.00000000             37             55            -86             39
   8132.00000000            -31            -30            -14            -42
   8136.00000000             51            -52            -44             16
   8140.00000000            -86            -52             78            -54
   8144.00000000             -8             -5             37             48
   8148.00000000            -49             43            159            110
   8152.00000000            104            -57           -103             30
   8156.00000000             15             48             34              5
   8160.00000000            -86            -34            -87            -44
   8164.00000000            -17            -43              7             48
   8168.00000000             89             60             68            -88
   8172.00000000            100             -2            -94             30
   8176.00000000              6            -24            -58             32
   8180.00000000             34             72            -24             77
   8184.00000000            113            -19           -111            116
   8188.00000000             43            -13             38            115
##END NTUPLES=NMR FID
##END=
