##TITLE=CEC-PhSi2-flow(sequence-1115)-06-08-26
##JCAMP-DX=5.01 $$ Nanalysis NMReady v2.2.5.1
##DATA TYPE=NMR FID
##DATA CLASS=NTUPLES
##ORIGIN=Nanalysis Corp.
##OWNER=Nanalysis
##LONG DATE=2026/06/08 11:23:25-0400
##SPECTROMETER/DATA SYSTEM=NMReady 60/nanalysis-X542
##INSTRUMENTAL PARAMETERS=^1H
##TEMPERATURE=33.001829
##PRESSURE=1.000000  $$ Bar
##RESOLUTION=0.00001999999949
##SAMPLE DESCRIPTION=None
##.OBSERVE FREQUENCY=60.55073035244033
##.OBSERVE NUCLEUS=^1H
##.SOLVENT NAME=Toluene
##.ACQUISITION MODE=SIMULTANEOUS
##.SHIFT REFERENCE=INTERNAL, Toluene, 4096, 5.00000000000000
##.SOLVENT REFERENCE=5.00000000000000
##.PULSE SEQUENCE=1D
##.DELAY=(0.000000,0.000000)
##.FIELD=1.422197  $$ Tesla
##.OBSERVE 90=15.789399
##.ACQUISITION TIME=6.55279983446235
##.ZERO FILL=0
##.AVERAGES=4
##.DIGITISER RES=16
##.SPINNING RATE=0.000000
$$##.PHASE 0=-20.00000000000000
$$##.PHASE 1=79.00000000000000
$$ NMReady specific parameters
##$SCANS=4
##$SCAN DELAY=1.000014
##$TOTAL DURATION=31.338313
##$X_PULSE=14.210050
##$RECVR_GAIN=12
##$SWEEP WIDTH=20.000000
##$RELAXATIONDELAY=1.280964
##$ZEROING=7.000000
##$APODIZATION=0.030000
##$PHASECORRECTION=-20.000000,79.000000
##$PIVOT=0.000000
##$DT=0.000020
##$LOCKOFFSET=2.080000
##$SPECTRALCENTER=5.000000
##$DECIMATION=40
##$LOWESTF2=-322.246364
##$T2NUCLEUS=1H
##$PULSE_AMPLITUDE=17.500000
##$PLOTTYPE=1D
##$INTEGRALS IS MANUAL=False
##$INTEGRALS REFERENCE ENERGY=16032.186925828573
##$EXPERIMENT_SETTING_Apodization=0.03
##$EXPERIMENT_SETTING_Decoupling Mode=Off
##$EXPERIMENT_SETTING_Digital Resolution=0.02 Hz
##$EXPERIMENT_SETTING_Dummy Scans=0
##$EXPERIMENT_SETTING_Dwell Time=0.50 us
##$EXPERIMENT_SETTING_NPoints (Complex)=8192
##$EXPERIMENT_SETTING_Nucleus=1H
##$EXPERIMENT_SETTING_Pulse Angle=80.37, °
##$EXPERIMENT_SETTING_Pulse Width=14.21 us
##$EXPERIMENT_SETTING_Receiver Gain=12.00 dB
##$EXPERIMENT_SETTING_Receiver Gain (dB)=12, Auto
##$EXPERIMENT_SETTING_Scan Delay=1.0 s
##$EXPERIMENT_SETTING_Scans=4
##$EXPERIMENT_SETTING_Solvent=Toluene
##$EXPERIMENT_SETTING_Spectral Center=5.00 ppm
##$EXPERIMENT_SETTING_Spectral Width=20 ppm
##$EXPERIMENT_SETTING_TX Frequency=60.550730 MHz
##$EXPERIMENT_SETTING_Time Per Scan=7.8 sec
##$EXPERIMENT_SETTING_Zero Filling=7
##$RDC_ENABLED=1
##$RDC_TYPE=CONT5PAR
##$RDC_DATA=(0.145553,5.475700,2.437884,0.765625,0.888815)
$$ End of NMReady specific parameters
$$ Bruker specific parameters
$$ --------------------------
##$DATE=1780932205
##$SI= 65536
##$TDeff= 8192
##$SFO1= 60.55073035244033
##$O1= 302.75365176220168
##$SF= 60.55042759878857
##$BF1= 60.55042759878857
##$AQ= 6.55279983446235
##$SWH= 1250.00003157765696
##$SW= 20.64384730459786
##$SR= 0.00000000000000
##$OFFSET= 15.32200026221006
##$FIDRES= 0.15258789447969
##$O1P= 5.00000000000000
##$TD= 16384
##$DW= 399.99998989515007
##$SPECTYP= PROTON
##$NS= 4
##$DS= 0
##$DR= 16
##$DE=1.000014
##$RG=12
##$P1=14.210050
##$P= (0..2)
0.0 14.210050
##$PHC0= 59.50000000000000
##$PHC1= -79.00000000000000
##$PH_mod= 1
##$WDW= 1
##$LB= 0.02999999932945
$$ End of Bruker specific parameters
$$ ---------------------------------
##NPOINTS=8192
##DELTAX=0.0008000000
##NTUPLES=NMR FID
##VAR_NAME=TIME,FID/REAL,FID/IMAG,PAGE NUMBER
##SYMBOL=X,R,I,N
##VAR_TYPE=INDEPENDENT,DEPENDENT,DEPENDENT,PAGE
##VAR_FORM=AFFN,AFFN,AFFN,AFFN
##VAR_DIM=8192,8192,8192,2
##UNITS=SECONDS,ARBITRARY UNITS,ARBITRARY UNITS,
##FIRST=0.000000,1288.183953,397.886307,1
##LAST=6.552800,0.000005,0.000020,2
##MIN=0.000000,-1238.739525,-967.240329,1
##MAX=6.552800,1288.183953,1157.716686,2
##FACTOR=0.00079999997979030013,0.00000059985757866125,0.00000059985757866125,1
##PAGE=N=1
##DATA TABLE= (X++(R..R)), XYDATA
      0.00000000     2147483000     1431169738     -143359099    -1518531913
      4.00000000    -2065056054    -1555744805     -381188774      753039195
      8.00000000     1267786384     1094718780      541265672       49533871
     12.00000000     -131709668     -128384307     -217109720     -534258522
     16.00000000     -928686743    -1017509691     -510330197      476735242
     20.00000000     1436425514     1761478686     1171573113      -69774913
     24.00000000    -1281184437    -1799272530    -1382796278     -340788687
     28.00000000      702241978     1198390939     1028243334      472725187
     32.00000000      -32289488     -225338480     -175540609     -157098728
     36.00000000     -349790975     -668782061     -789703256     -441814271
     40.00000000      337409757     1135977710     1435682850      962817089
     44.00000000      -76260425    -1110762301    -1545657239    -1159488130
     48.00000000     -218028073      703857761     1109430400      877321893
     52.00000000      295101943     -209375594     -352639204     -201850217
     56.00000000      -37821004     -103783197     -373420171     -576967789
     60.00000000     -413638701      150641180      816827241     1133633462
     64.00000000      823679206        2282242     -867482729    -1274075527
     68.00000000     -986527555     -200470875      603629811      970513810
     72.00000000      772515589      231207399     -250294587     -399885779
     76.00000000     -240417289      -23286415        5165752     -189806672
     80.00000000     -393081716     -335377558       64477375      600416583
     84.00000000      898223822      693217401       38260552     -698284053
     88.00000000    -1074364195     -858225961     -185371042      535838780
     92.00000000      885627485      712220442      202894755     -279945750
     96.00000000     -451471014     -294918622      -35929034       71338593
    100.00000000      -50806267     -247755227     -271951341       -2916864
    104.00000000      425434405      710496734      595583487       81305710
    108.00000000     -551231775     -909264078     -762812795     -188731583
    112.00000000      462921225      810888159      679668116      207853933
    116.00000000     -275217632     -479410264     -349006485      -69458514
    120.00000000      103161923       53995024     -124699592     -205446247
    124.00000000      -49451642      282118071      544569856      501861272
    128.00000000      108454818     -424257259     -763523324     -677399575
    132.00000000     -197945546      388309849      732085324      643678690
    136.00000000      217761056     -252306957     -478692967     -377979995
    140.00000000      -95167662      122680247      127428313      -23892818
    144.00000000     -147194515      -81138226      162578203      399419682
    148.00000000      411368001      127705812     -315152839     -627601418
    152.00000000     -592634757     -202687384      314343151      642971687
    156.00000000      595139766      222439468     -221639601     -460075146
    160.00000000     -386441197     -114462378      132010751      184654198
    164.00000000       56127694      -89046707      -99831722       63096662
    168.00000000      268486253      324674948      137300597     -211147812
    172.00000000     -496386713     -509925953     -208782088      234303460
    176.00000000      545815552      537882708      221183343     -185935499
    180.00000000     -431124305     -390355167     -136526175      128751471
    184.00000000      226490791      132949860      -32045250     -109422699
    188.00000000      -21191609      152841414      248356890      148008618
    192.00000000     -113457674     -371042100     -426790633     -212699207
    196.00000000      157521038      451940547      481562118      226753715
    200.00000000     -144429884     -398935015     -390803673     -162299804
    204.00000000      111996316      247929035      186509009       17358211
    208.00000000     -104146940      -77466056       62523276      180120762
    212.00000000      146834494      -43527423     -268191042     -351567283
    216.00000000     -202891477      100432167      372026579      426810177
    220.00000000      226929318     -104760083     -359318282     -385905755
    224.00000000     -189126259       81373426      251739491      231537839
    228.00000000       72565442      -82336449     -117280700      -22951903
    232.00000000       97958962      122573293        8294547     -167913695
    236.00000000     -264648839     -178913067       59660495      296712929
    240.00000000      372868448      221002570      -70426985     -320047165
    244.00000000     -375595526     -208871292       56364055      255135245
    248.00000000      268829833      120525959      -60751583     -150573371
    252.00000000     -100179235       24321522       95866362       46450652
    256.00000000      -86689627     -188718278     -153740513       20318305
    260.00000000      226399297      314708302      209756090      -37280097
    264.00000000     -274045297     -350011384     -215192826       34832499
    268.00000000      245469926      291439295      160384064      -36279769
    272.00000000     -169285467     -157751148      -43600733       66645060
    276.00000000       80010491       -7187607     -110215053     -125838143
    280.00000000      -20509487      141961700      237599901      183017377
    284.00000000       -5948811     -208675670     -296896059     -204953445
    288.00000000       10945549      214476880      278718571      175170015
    292.00000000      -17693017     -168075053     -188716604      -86267316
    296.00000000       46169289      103201007       58937599      -40117533
    300.00000000      -94867983      -51387424       62666976      156453444
    304.00000000      146151362       16645805     -146989927     -235003890
    308.00000000     -177647526       -1359085      182593365      256042904
    312.00000000      173082787       -6631905     -167107189     -210171186
    316.00000000     -118523745       30943201      129161296      118777151
    320.00000000       25022824      -65257605      -81053575      -14246335
    324.00000000       75985129      105043502       40872235      -78324698
    328.00000000     -162481751     -142473178      -17230203      132872849
    332.00000000      208545269      155816225        3396463     -148671018
    336.00000000     -204285955     -130032883       16000875      134132701
    340.00000000      151635660       71627650      -37305852      -97123530
    344.00000000      -66732381       13025685       70291294       55883729
    348.00000000      -19100186      -96468662     -106380274      -29644728
    352.00000000       84101749      158133811      130320579       13131878
    356.00000000     -121045822     -181060675     -130933073        -287420
    360.00000000      125533316      161826735       97478088      -15621578
    364.00000000     -100689187     -101555871      -34228501       44979282
    368.00000000       71526876       29457582      -40938926      -80631005
    372.00000000      -49628364       36016107      107555576      110318514
    376.00000000       31171789      -80965320     -150303103     -123439148
    380.00000000      -20360914       95786427      149112295      108764427
    384.00000000        6427072      -86472107     -114685276      -63293283
    388.00000000       17843805       72105728       60351660        4064487
    392.00000000      -50913889      -52818394       -2642599       61859579
    396.00000000       83318216       39140788      -44865259     -109322243
    400.00000000     -104011809      -28646500       70023376      126815903
    404.00000000      105127188       17914772      -74798578     -115222435
    408.00000000      -78218416        -767112       66100167       79273146
    412.00000000       35661491      -24830548      -56083828      -31945781
    416.00000000       20409886       58343486       45130403      -12306841
    420.00000000      -69691318      -80895863      -35760189       41409847
    424.00000000       98174742       92031691       26525829      -59373191
    428.00000000     -105612876      -85894046      -14767633       61198504
    432.00000000       87465243       55876431       -5716053      -53958894
    436.00000000      -53882265      -13382099       31319126       46424625
    440.00000000       16138552      -32145944      -58554094      -37569215
    444.00000000       17964572       67389500       74973996       32470795
    448.00000000      -38318349      -87563139      -81185916      -24994936
    452.00000000       45033896       81295787       64723753        8996760
    456.00000000      -47493761      -63260895      -34618390       13061448
    460.00000000       42556333       34110943       -1680892      -34520170
    464.00000000      -34738024       -3639770       38343814       55119423
    468.00000000       32142895      -20007017      -61191562      -66102561
    472.00000000      -25663732       33612976       71219498       62343598
    476.00000000       14493757      -39007123      -62954876      -44631214
    480.00000000       -1263815       36711689       44179586       19047732
    484.00000000      -16782564      -32919634      -18246424       13519587
    488.00000000       35109291       28788381       -1597371      -39576948
    492.00000000      -48638460      -24773646       19634435       54628645
    496.00000000       54164898       19538213      -30502182      -56900959
    500.00000000      -48395725       -9387598       30106492       45332031
    504.00000000       29823933       -3401457      -27717369      -30167232
    508.00000000       -7292491       18064151       25401157       10630653
    512.00000000      -16592756      -33022435      -23416469        6101056
    516.00000000       35120154       42705576       21966449      -18307345
    520.00000000      -44969383      -45173522      -15617118       22131332
    524.00000000       41965196       33353054        5059317      -21201733
    528.00000000      -32588295      -19465086        4512620       20493517
    532.00000000       16718552       -1663795      -17987182      -19208765
    536.00000000       -1931658       19836617       28815233       18553956
    540.00000000       -8697575      -30651830      -34557164      -15357734
    544.00000000       14007158       34378095       32153530       10706792
    548.00000000      -16344478      -30194551      -24479742       -4425818
    552.00000000       15650011       20880693        8559918       -8488171
    556.00000000      -16591995       -9348724        4927596       16866474
    560.00000000       14169071       -2430320      -21181026      -25890885
    564.00000000      -15556650        8035662       27228252       30261065
    568.00000000       11172348      -11740072      -26697664      -24905871
    572.00000000       -7299602       13008300       21593540       15639701
    576.00000000        -739088      -13027364      -14114250       -3867861
    580.00000000        8228119       11814125        3102321       -9925085
    584.00000000      -16120713      -11939559        3071589       19420482
    588.00000000       21018909        9605335       -8460813      -20451111
    592.00000000      -20537756       -8424911        8514683       20473870
    596.00000000       17575833        4763188       -9704155      -14286979
    600.00000000       -6299547        2690771        9006020        7476231
    604.00000000       -2236161       -9673872      -10928845       -1127886
    608.00000000        9252754       15092337        8870752       -2127757
    612.00000000      -15960185      -17094343       -9010561        5163964
    616.00000000       16661506       16625783        9029737       -5363521
    620.00000000      -11109891       -9796764       -2180396        4573634
    624.00000000        7566590        2019405       -4408372       -5902510
    628.00000000       -4436160        4698526       10689192        7401510
    632.00000000       -1090654       -9578669      -14450447       -9708164
    636.00000000         521832       10285985       14620245        7662628
    640.00000000       -2093780       -9757063      -10536947       -4999264
    644.00000000        1609588        7051525        3931171         304095
    648.00000000       -5301110       -5275793        2212198        7197532
    652.00000000        5440367         944928       -4541244       -8876940
    656.00000000       -7939713       -1766562        8176700       10887277
    660.00000000        7612009        -347539       -8877011       -9427197
    664.00000000       -6661578          87911        5738648        5739473
    668.00000000        1294563       -1092032       -3552896       -2591807
    672.00000000        1963159        3719388         893890        -913899
    676.00000000       -4821047       -6583834         365439        5071470
    680.00000000        9621636        6435495         461248       -6239884
    684.00000000       -9855272       -7179552       -1265985        5248990
    688.00000000        6822083        4425966        1248995       -3576362
    692.00000000       -3591638       -2640960        1156857        1974792
    696.00000000       -1524797       -2631463       -3077632       -1335056
    700.00000000        2359919        6711131        5784756         605895
    704.00000000       -2940826       -7719412       -6743034        -965316
    708.00000000        3244734        6708914        6230692        1507659
    712.00000000       -3180961       -4502938       -2489675        1185028
    716.00000000        -121594        1128751       -2343736       -1514071
    720.00000000       -2142606        2177086        4378758        4850784
    724.00000000        2064447       -3821109       -5949812       -5618469
    728.00000000       -1055082        2735321        7869073        5329710
    732.00000000        2650744       -1468167       -3814127       -4314769
    736.00000000        -838135        1656223        1410615         344758
    740.00000000       -1932504        -957812         504897        3098850
    744.00000000        2882641        1569277       -2540142       -5117414
    748.00000000       -4829186       -1949676        2643641        6278254
    752.00000000        5615932        3701524       -1528653       -4949886
    756.00000000       -5222772       -1251969         621039        1612001
    760.00000000        1302504        -684916        -507004        -129631
    764.00000000        2533922        2806089        1647602       -3052054
    768.00000000       -4880142       -4918784       -2379843        3834646
    772.00000000        5552323        6586672        2534619       -1554948
    776.00000000       -4382366       -3773928        -937561        1596333
    780.00000000        1217603        -680135       -3671682        -437759
    784.00000000        2545256        4056674        5019685        3572957
    788.00000000       -3927489       -5289117       -4940614       -1505247
    792.00000000        1940184        2966521        2207377         363845
    796.00000000         153815         515871        3071486         480091
    800.00000000        -421194        -687675       -4929783       -3136890
    804.00000000         -83129        1915820         606930        -390316
    808.00000000         321058         754805         364396          99354
    812.00000000       -1121542         266495         495710        1593616
    816.00000000         682488       -1753550         532738        -920342
    820.00000000         968553         -52424          71327         181903
    824.00000000        -342095        -437515        -806353        -900510
    828.00000000        -533568        -644356          47941        1609816
    832.00000000         428134        1381311         324923       -1148477
    836.00000000        -966002        -703026        1201904         433191
    840.00000000         600068         273577        -374252        -374814
    844.00000000        1770517        2093104         198910         -47680
    848.00000000       -1476005       -1815142         -50691        1230064
    852.00000000        1850778        -156864         121212       -1070371
    856.00000000        -761575        -218716       -1415980       -1036223
    860.00000000        -454399       -1103019        1221348         831598
    864.00000000         -90017        -280486         355060         574901
    868.00000000         534123       -1817935        -100946        -570974
    872.00000000         455605          66006        1325593         702473
    876.00000000         652900         165656        -772185        -466515
    880.00000000         824784        1182300         138400         306706
    884.00000000         471324           2949        1465334         312043
    888.00000000        -468505        -597628        -590174         278508
    892.00000000        -159976        -542725        1374612        1270496
    896.00000000         599225        -550084        -596430       -1263692
    900.00000000        -131430         550309        2009236         -31224
    904.00000000        1019157         248758        -986429          74338
    908.00000000        -794000         183613         455277        -128009
    912.00000000        -957641         942213         -45834        1085646
    916.00000000        2003264        -139822        -580086        -756790
    920.00000000        -693858       -1459240        -385859         894767
    924.00000000        -139117          41548        -317413        -409298
    928.00000000        -544720        -461328        -223289       -1527379
    932.00000000         168230       -1536744        -314217         207631
    936.00000000         124828        -113752         -50590        -999658
    940.00000000       -1585793       -2012701        -800579        -747681
    944.00000000        1775505        1690000         282383         905681
    948.00000000       -1085458       -1138636        -479501        -418931
    952.00000000         752097         452906         738368         124851
    956.00000000        -124721         177671         746049        -540423
    960.00000000          27062       -1027529        -652613        -581060
    964.00000000         630297         875328        1566682         425030
    968.00000000        -180416        -226546       -2304279       -1321826
    972.00000000        -892013          77844        1503382        1943323
    976.00000000        1368221        -634699        -196959         153117
    980.00000000          34600        -271698         585509        -241453
    984.00000000          59314        -425990        1180809          18869
    988.00000000         333873         -87934        -865235        -881784
    992.00000000       -1383465         537283         625667        1454886
    996.00000000         771574        1340157         -55202        -964176
   1000.00000000        -643993        -233934         419795        1038736
   1004.00000000          82681        -970099         -95898         667976
   1008.00000000         158699         911319          10622        -851140
   1012.00000000        -874226        -964644          69157         953718
   1016.00000000        1904211        2043756           6243        -143723
   1020.00000000       -1515166        -193768        -354721        -448644
   1024.00000000         205054         792565         605419          19601
   1028.00000000        1083266          90285         388552         277032
   1032.00000000         -57590        -833930        -601519        -255423
   1036.00000000         324820        1542066        1552716         394241
   1040.00000000        -627374       -1233161       -2058677         204048
   1044.00000000         660691         894610         266181         501184
   1048.00000000        -645929         149594        -304812        -889415
   1052.00000000         204040         185935        -815266          57432
   1056.00000000         757912         353770         270175         432740
   1060.00000000         344358        -980483       -1129849       -1171363
   1064.00000000        -503527        -137318        1372991         792178
   1068.00000000         695813         228786        -452700        -919497
   1072.00000000        -576010         201410         371528         285551
   1076.00000000         738763          43902        1578988         665651
   1080.00000000         431294         108719       -1347010       -1694324
   1084.00000000       -1345241        -941810         764267        1531408
   1088.00000000        1061260        1104306         694355        -867016
   1092.00000000       -1076563        -770903         296850         696765
   1096.00000000         969422        1024667        -620855        -239734
   1100.00000000         -76131        1184738        -201941        -235635
   1104.00000000       -1111021        -818682        -442306        1251197
   1108.00000000         384433         432481         428747        -628822
   1112.00000000        -706704       -1188351       -1427713        -847994
   1116.00000000         892883         973099         473500        1026515
   1120.00000000         -59222         261880        -417765         788780
   1124.00000000        -518215        -965382        -882792         -82658
   1128.00000000         665367        1214394        1808254         889742
   1132.00000000       -1208479        -644897       -1446293        -361231
   1136.00000000         439953        1976924        1216231        1446502
   1140.00000000         -40961        -519570        -650195         843901
   1144.00000000        -810164         708788        -512444         234975
   1148.00000000         809409        1646762         885431         402253
   1152.00000000         265094        -523869        -860351        -592470
   1156.00000000        -133472         443265        1255222        2015386
   1160.00000000        1225395         108141        -422558       -1332809
   1164.00000000        -253894        -331596         112405          94448
   1168.00000000         512040        1183211         138672        1099719
   1172.00000000         386154         815781        -571031       -1271874
   1176.00000000        -878293        -391191         486863          28296
   1180.00000000        1406602         867123         386138        -555357
   1184.00000000       -1117169        -614143        -781893         701941
   1188.00000000        -349606         202143         125867         -55159
   1192.00000000        -134701          86278        -714800        -154757
   1196.00000000       -1359223        -469301         112153         590951
   1200.00000000         567416        1395870         185647         -67347
   1204.00000000       -1630869       -1051700        -852151         619637
   1208.00000000         697529          61638         115130         572523
   1212.00000000         554213        -133226         694167       -1034770
   1216.00000000       -1129272        -112818        -511416        -610579
   1220.00000000         327895        1014455        1368795         -17562
   1224.00000000         -45380         403045          -5750         -16553
   1228.00000000        -580628         213115         113139        -494339
   1232.00000000         -65178         760957        -289109         330593
   1236.00000000          78939        -352501        -627433        -692537
   1240.00000000        -406338         491623         631377         748086
   1244.00000000        -736592        -309242       -1009019       -1123205
   1248.00000000        -479980         257400        -153771         834255
   1252.00000000         750862        -229055        -412876           8389
   1256.00000000        -669048        -151214         288027        -562974
   1260.00000000         457707        -242371        -272758        -548869
   1264.00000000        -949165        -461889          10626        -830126
   1268.00000000        -478408         -67820         915754        -213919
   1272.00000000         401722         277955         529373        -851602
   1276.00000000         111574        -798718        -783356         352074
   1280.00000000        -251238         788186         357285         276961
   1284.00000000        -399039         836342         338392        -623884
   1288.00000000       -1170345        -244929        -210698         115222
   1292.00000000         249455         643558         173272         646704
   1296.00000000         390132         393068         -93003        -170849
   1300.00000000          67840        -318422        -128366         336371
   1304.00000000         393950         882229        1096526         315647
   1308.00000000         227625        -405433        -433570        -320258
   1312.00000000         402572         449215         592043          53751
   1316.00000000         505839         193739         500332        -178898
   1320.00000000        -164574        -476886         -93741        -585087
   1324.00000000           -430        -432077         596365          78049
   1328.00000000         680211        -113426        -692992        -687191
   1332.00000000         155364         126039         555807         881565
   1336.00000000        -320778         232260         273804        -323301
   1340.00000000         217810         -42862           2950         173382
   1344.00000000        -520672        -128094         409172           2966
   1348.00000000        -383953         224410         402383          13422
   1352.00000000        -455525        -763820        -526642         879750
   1356.00000000         477962         704686         551771         290189
   1360.00000000          40390        -558602         196504         370796
   1364.00000000        -165425          97456          67503         149754
   1368.00000000         413484         119742        -295519        -114584
   1372.00000000        -434461        -380447          38873          65247
   1376.00000000         647848         470587        -143096        -326167
   1380.00000000         -21618         327565         199061         -53969
   1384.00000000        -117680        1210367         198527        -192113
   1388.00000000         189810         261911        -512793        -971548
   1392.00000000        -254253         127773        -136187        -597051
   1396.00000000         -95381         164612         509102         738039
   1400.00000000        -271714        -165490           3718         204747
   1404.00000000         532000        -588146        -541575         -99078
   1408.00000000         531283        -162871         204770        -721032
   1412.00000000        -675077         -59008         -30783        -853969
   1416.00000000         135668         -54297         -44216        -347749
   1420.00000000         480945          -7018        -302796         -61388
   1424.00000000         520654         448308           2547        -434092
   1428.00000000        -262326         216523         139471         220321
   1432.00000000          66610         -58491         -37652        -800772
   1436.00000000        -438393         691051         -37708        -302707
   1440.00000000         841747         534444        -344139        -318802
   1444.00000000         146607        -175817         529499        -118744
   1448.00000000        -585284        -203394        -129916         264347
   1452.00000000           8592         276274        -174046         124581
   1456.00000000          74635        -208688        -232524         425348
   1460.00000000         -42049        -207779         -10207         238615
   1464.00000000        -579154        -166357         100510          53303
   1468.00000000         101120         174114        -116378        -170965
   1472.00000000         122248         322058         130724         572019
   1476.00000000        -257181        -247642         222948        -151413
   1480.00000000         435841          12329        -179817         392719
   1484.00000000          16310          62808         261416         195426
   1488.00000000        -203314         179355         556549         -56897
   1492.00000000         454782        -410130         -42512        -516016
   1496.00000000        -142752        -520356         -60714        -105851
   1500.00000000        -509542         615309         -44819         147652
   1504.00000000         128937        -147979         383608        -561766
   1508.00000000         515437         333239          37082         307914
   1512.00000000         660779        -373593         182011         424526
   1516.00000000        -222359         -74167        -490425        -292546
   1520.00000000         220101         123093        -103820        -266223
   1524.00000000         302191         -59415         -76715        -145762
   1528.00000000        -306476        -120951         670757         358750
   1532.00000000         344024        -102251        -473991        -335954
   1536.00000000         -23198          33396          55111        -226267
   1540.00000000           6574         -61502        -391607         415646
   1544.00000000          22929         365661         144247         -10587
   1548.00000000        -678447        -166825         215809          67442
   1552.00000000        -184247         312105         339794          86475
   1556.00000000         513270         384773        -322542          25462
   1560.00000000        -403298          52950        -405447         515407
   1564.00000000          22810        -227874         421721         444277
   1568.00000000         427065         126685         383352         197157
   1572.00000000          17271         -88356         260159        -132633
   1576.00000000        -421018        -275890         309232         -64205
   1580.00000000         270613        -202254         640853        -172698
   1584.00000000        -310360         306613        -571036        -461270
   1588.00000000          43673         -64567         179793        -169389
   1592.00000000         -27673         -14819        -338881        -285463
   1596.00000000         370136        -235310         -20895         -44869
   1600.00000000         463809         117519         -75146         387672
   1604.00000000         689359         223719         249526         235085
   1608.00000000        -208134        -569843         -31859        -234292
   1612.00000000          20503         -78524         525200         -20308
   1616.00000000         103082        -297150          29069         515253
   1620.00000000         193370        -521251        -213914        -178399
   1624.00000000         459722        -139182          54931         138803
   1628.00000000         339247         118915         322120         158234
   1632.00000000         150686        -126370         -31310         351990
   1636.00000000        -212468         279134        -214856        -135775
   1640.00000000         -84376          80517        -434863          49772
   1644.00000000        -360282           2285        -508644         204802
   1648.00000000        -141682         290873        -367826        -268766
   1652.00000000         -85703        -465563         235417          59701
   1656.00000000        -149944         109647        -207457        -502037
   1660.00000000         -87319        -193431         642354        -163828
   1664.00000000         -84000         516549         323786        -270982
   1668.00000000        -729708         -50921         304723         399928
   1672.00000000        -294076        -262207        -125857         272250
   1676.00000000        -479243          97829         157404         -46455
   1680.00000000        -103413        -198016         143878         -21886
   1684.00000000         114885         -22536         170932         307854
   1688.00000000          18391         -84297         106521        -224734
   1692.00000000        -352944         270079         151271        -119140
   1696.00000000         -55125         296621         473251        -102200
   1700.00000000         -56574          80981         -79127         113106
   1704.00000000         227596        -164414         -30928          56570
   1708.00000000        -141133        -461896        -215957         299514
   1712.00000000        -207811          71760        -313344         493595
   1716.00000000         256985         178799        -364137         206468
   1720.00000000        -165609           3606        -296332         215697
   1724.00000000         436068        -141117        -322358         265211
   1728.00000000         231128        -231228        -168472         170288
   1732.00000000         240723          62875        -228097         -72588
   1736.00000000         311922         354409         -42622         403588
   1740.00000000         245801        -192065         319043         237452
   1744.00000000           5792        -296728        -280369        -285804
   1748.00000000          26664        -292026          33094        -386661
   1752.00000000        -325830         491528         -58183         435506
   1756.00000000          56852         -56030        -119189         -90787
   1760.00000000          44865        -127802        -514122          87736
   1764.00000000         323683         320453        -162410        -123063
   1768.00000000         155760          91025        -122843         374581
   1772.00000000         -12040         200215        -189014         240920
   1776.00000000        -381799         393000         -26927         -87675
   1780.00000000         339917         -36899        -423419        -121742
   1784.00000000        -216199         364648          -2345         243323
   1788.00000000        -307999         -98323        -399476         497313
   1792.00000000        -112276         393265        -134703          59190
   1796.00000000         -32904        -135526        -244958           3097
   1800.00000000         -60239         158699        -444884        -228214
   1804.00000000         429457        -145802          26877        -404375
   1808.00000000         -92122        -191067        -478322        -517781
   1812.00000000         -23358        -188423         157084        -140841
   1816.00000000         -69014          23768         -75153         -17442
   1820.00000000        -121659          52162        -300336        -357246
   1824.00000000        -161774        -292279         161531        -306614
   1828.00000000        -213259        -120672         -79840         -61043
   1832.00000000           -573          62289          44818        -135274
   1836.00000000         170690         118274         258086        -252037
   1840.00000000        -316124        -214950         247016         135079
   1844.00000000        -236900        -153991         -72606          41090
   1848.00000000        -144336        -111219          38266         306570
   1852.00000000         197825          -4043        -101478          49120
   1856.00000000          52408         342412         372890         -29044
   1860.00000000         -49669         -90274         -24106         342022
   1864.00000000        -155217        -205833         -54573        -131957
   1868.00000000        -209944         137889         179409         -69588
   1872.00000000         106180          30469        -148064        -126826
   1876.00000000         502400         187070         166763         -39828
   1880.00000000         203937         657162          43819        -460268
   1884.00000000         208348         -91437         163947        -341632
   1888.00000000        -219234         112435         -20214         288222
   1892.00000000         538909         211938          -1178         110889
   1896.00000000         232914         165320         149190         214715
   1900.00000000         476532         111622         -37433          97101
   1904.00000000         269585         138738          28205         239051
   1908.00000000           8079        -177980         523185        -330465
   1912.00000000         179809          42443           7544         258909
   1916.00000000        -102609         140296         157642        -256142
   1920.00000000         318541         158413        -272869          84272
   1924.00000000        -148717          90138         158973         -81937
   1928.00000000        -248270          98309         119047         254515
   1932.00000000         -46994         482992         224600        -206682
   1936.00000000         181238        -230016          53645         185266
   1940.00000000        -133241        -120237         113969        -338787
   1944.00000000          59667          86056         244298         -76232
   1948.00000000        -187138        -224141        -197643         106171
   1952.00000000         223311          28685        -139461         144878
   1956.00000000        -149430          51171          -5605        -135343
   1960.00000000         -40546          31241         -48168         -53932
   1964.00000000        -378935        -181482         -26641        -190156
   1968.00000000          61408        -380368          62189        -311315
   1972.00000000         -77681        -145853        -348948         142466
   1976.00000000        -123683         -91636        -129022         -34086
   1980.00000000         -42483        -361151         131361          85074
   1984.00000000          46105          54299        -293228         -53643
   1988.00000000        -210816        -111039          40081        -442516
   1992.00000000          74952        -479901         330116          28941
   1996.00000000        -272199        -178121          99091         -17782
   2000.00000000          -2555        -149776         186079         105046
   2004.00000000         124637        -119535        -141416         -96471
   2008.00000000         -67909          95301        -130263         -10899
   2012.00000000         222289        -363845         -28050         321310
   2016.00000000         288178          40886          34597          49568
   2020.00000000         -43997          87411          24628         275325
   2024.00000000          79868         154515         116756          69883
   2028.00000000           8006        -108191         -89920           4657
   2032.00000000         194417         302670        -136567         155398
   2036.00000000         201471         165424        -104552         122940
   2040.00000000        -198043          87811         118769         239008
   2044.00000000          59398         -58103          56940        -114372
   2048.00000000           3739         -77682        -228890         -72089
   2052.00000000        -155700         -61095         240540        -231733
   2056.00000000           9091          25804        -335058         200850
   2060.00000000          97604          34946        -244671         215380
   2064.00000000          35140        -231676         -19037         163063
   2068.00000000         221096        -274002         228058         158219
   2072.00000000         107606         -51221          55269         155256
   2076.00000000        -286184         -62618        -111991        -130597
   2080.00000000          29569         165519          65517        -105722
   2084.00000000           7614        -205206          42360         218937
   2088.00000000        -136445          61279         -79178          58783
   2092.00000000          86875         -52207         -64722          -6031
   2096.00000000        -168822        -206126        -193284          10956
   2100.00000000        -174243           -826         146206         -10790
   2104.00000000         177374         114358         -94506        -143390
   2108.00000000        -131833          19649         -84018        -294981
   2112.00000000        -104331          -4095        -236537          25472
   2116.00000000        -130135        -332701         -11100          68766
   2120.00000000        -289762         -89608         -89578          63445
   2124.00000000         -78861         195180         -32854        -274146
   2128.00000000         -71147        -122396           4652        -232498
   2132.00000000        -116706         385154          -5621        -287969
   2136.00000000         235106        -172633        -126123         -88811
   2140.00000000         -22176        -171531          38337          24018
   2144.00000000          99924         -17233         -46133         -33150
   2148.00000000        -125096         177803          10922        -127853
   2152.00000000         -55069         178345         110992          35047
   2156.00000000         280994         -21202         -71096         -11540
   2160.00000000        -113911          79156         -37069         -42163
   2164.00000000         170988        -169656          -4895          36728
   2168.00000000         161146          54239         200222         -23764
   2172.00000000         -12118        -132045         331019         106141
   2176.00000000        -190370          72244         -81966          13244
   2180.00000000         -93608          72728         205434          47466
   2184.00000000         -69917         120416         132857        -138263
   2188.00000000        -206498         112377         133477         232042
   2192.00000000          17299          85163         -84926        -121028
   2196.00000000         -79281          43038          16762         216188
   2200.00000000         220764          98177         -37163          58609
   2204.00000000         221055          83799          92213          59057
   2208.00000000        -133946         -24217         162791        -274871
   2212.00000000          83266        -219056         241043         214917
   2216.00000000        -297982          24017         185560        -121915
   2220.00000000          80244          91030        -214891         102297
   2224.00000000          47892        -182907         -26980         -31222
   2228.00000000         -38917          15801        -114475          55541
   2232.00000000          58891          74948          11332        -107840
   2236.00000000         116761         -54485        -207936         151874
   2240.00000000          40064         167171         -49944        -179123
   2244.00000000         131713          56483         -98763           9086
   2248.00000000         -28247         -77852        -115371          -4904
   2252.00000000         -59488         203740         138336         150478
   2256.00000000         -23528         106078        -179972         -29103
   2260.00000000          39033        -124774        -124273         -37589
   2264.00000000         -90062         -22400          50170         117175
   2268.00000000         -31556         -29575          21494        -122589
   2272.00000000         -65766         137535          72803        -183773
   2276.00000000          98729            335          81731        -118164
   2280.00000000         210966         218580         -57008         -24215
   2284.00000000        -160612         152227         -52441          24355
   2288.00000000        -107258         -87414           5019        -248678
   2292.00000000          29360         197950         156888        -231552
   2296.00000000          33755          -6160         127101        -177802
   2300.00000000          23673          30357          34664           5242
   2304.00000000          33595           1046        -111373        -214549
   2308.00000000         132623          37759         -88818         -62564
   2312.00000000         -26110         -51832        -155699           -451
   2316.00000000         192430          39800         -32212         -21813
   2320.00000000         107079         -55824          96783         -22467
   2324.00000000           9500         101766         -44452          85241
   2328.00000000         119883          32930        -173901          65741
   2332.00000000          33445         -94380          20985         229987
   2336.00000000         141776         120476        -129441        -186631
   2340.00000000         127659        -133215        -236207        -175817
   2344.00000000         -50790         127186          46324          78798
   2348.00000000         -34739        -120576         140019          45307
   2352.00000000         109996         100664        -132383          68935
   2356.00000000          15925         171026          47895        -140590
   2360.00000000          97745          51460         120430        -159350
   2364.00000000        -126125        -197459         -56518         -76263
   2368.00000000         111005         -64147         -26107         126818
   2372.00000000         -36672         -26063          64969         138680
   2376.00000000         -47719          46420           9774          21892
   2380.00000000          80083         208882          22119          59094
   2384.00000000        -129432         -55983         -41522         -55493
   2388.00000000          39595          31477          -6622          61121
   2392.00000000         -35365        -212658         136559        -137462
   2396.00000000         -30111        -192914         -47752         -42989
   2400.00000000        -181886        -130373          52800         -20311
   2404.00000000         -12896           3204        -207411        -152365
   2408.00000000        -144818          13027          78868          28141
   2412.00000000         -99288        -223469        -243601          62358
   2416.00000000          35447         200221         -15058         148111
   2420.00000000         -26086          65266         -98866         -62994
   2424.00000000        -145877         -77383        -145084          55100
   2428.00000000         187911         107810           1248          75053
   2432.00000000         -40526         -64908        -136120        -225789
   2436.00000000         -23643         -91891         -92405        -168953
   2440.00000000         -35726        -183625        -137393        -245329
   2444.00000000         -83685         117584        -190308          44109
   2448.00000000         -94356        -176006          40577         -63461
   2452.00000000           9243         -85721        -110349         -10794
   2456.00000000        -246639          34082         116150           3696
   2460.00000000         -52248         -42684         126503         109194
   2464.00000000         168005         -92667        -115315         120169
   2468.00000000        -208027          68421         -78891        -216973
   2472.00000000         108343         123718         100836         142257
   2476.00000000         -58891          61317          27793         186103
   2480.00000000        -155619          58185        -106211         -76252
   2484.00000000          59438         -89203         -16852         146546
   2488.00000000         177945          32198         189460        -141191
   2492.00000000          39879          17484         134821         -44561
   2496.00000000          63996          72332          55142         117620
   2500.00000000        -145713         148684          14085         -32380
   2504.00000000         150067        -220823         -29984         135109
   2508.00000000          88184         123745         189895         -50058
   2512.00000000         -49945          28062         164117          62648
   2516.00000000         149195         -79876         -73481         191563
   2520.00000000        -100279          37044          65134         -15556
   2524.00000000          10099          10823         -78963         -36956
   2528.00000000          -6796          75297         -83255         129115
   2532.00000000          60686        -182952         -31763          79163
   2536.00000000            325          -8231         -90307         -75177
   2540.00000000        -143478        -152222          28972         -24217
   2544.00000000          77379         -66641         118854          18630
   2548.00000000          13022         -44162          31146          59767
   2552.00000000          40266         -53464        -139897        -100174
   2556.00000000          43934        -108460        -125368        -197605
   2560.00000000         -93450        -113793         -61216          19473
   2564.00000000           2966         119839         152115           -803
   2568.00000000         -27120         -23670         121965          62072
   2572.00000000        -203270         -74895          45147         -95737
   2576.00000000        -160623          19818          45664         -54022
   2580.00000000        -148125         -21029         113012         149011
   2584.00000000          98290          39462         -59092         -72349
   2588.00000000         -91322         -72852          14223         -44279
   2592.00000000        -125486           8965         -57717         -18780
   2596.00000000        -126668        -116416        -134784         -49776
   2600.00000000          25889         -17830        -129601        -141033
   2604.00000000        -106369          26124        -100711         -66168
   2608.00000000          21595          -2502          -9453         126885
   2612.00000000         173476         113615          93851          66112
   2616.00000000          36993         -82890          62169          52231
   2620.00000000         -16176          65091        -101473          33254
   2624.00000000         -93231         -12137          56633          34357
   2628.00000000         -23713          -7148         -13224          57913
   2632.00000000          57840          17629          17650         -47942
   2636.00000000         133220          40484         -20035        -158126
   2640.00000000         173119          43827          24622         -28548
   2644.00000000         -10696         -11163         -34041          58206
   2648.00000000         -21886          15950          25686          66693
   2652.00000000          36708         -12029          39097         -55618
   2656.00000000         104095         -76959        -104763           6824
   2660.00000000          16158          10767           -360          -3628
   2664.00000000          47683          64619           9853          82852
   2668.00000000          26869          27843        -132700        -115993
   2672.00000000         -36560          44235          43503          -8024
   2676.00000000        -165781          48567          -5997          21957
   2680.00000000          63656         116347         -75985           3297
   2684.00000000        -136951          54534         -18198          98307
   2688.00000000         -47918         -25096        -140547          23635
   2692.00000000         -40068        -107617         -71097          26759
   2696.00000000          14337         -89131        -122756         -58714
   2700.00000000          -5256         -74754           7458         -17328
   2704.00000000          12160         -14580          35616         -88485
   2708.00000000          37790         -17907        -101146          33458
   2712.00000000          85536          28233         -79906          23366
   2716.00000000           6817          12819         -80709         114117
   2720.00000000          -1543          65745         -26189         -67959
   2724.00000000          38069         -49259          37970         -90627
   2728.00000000          11274          27515         -34023        -175804
   2732.00000000         -45140          -1148         -53015          18908
   2736.00000000        -111375          53451         -26749          66034
   2740.00000000          -4916         -47571         -49618         -75171
   2744.00000000         -13083         -10987         -84762          99430
   2748.00000000          20268          27729        -127197         -96681
   2752.00000000          70110        -154493          13070         -11150
   2756.00000000          56918          -1711         -71718         111244
   2760.00000000         -52873          14356           2466         -55932
   2764.00000000         -46526         -23250          26062          68142
   2768.00000000         -73551         -73001         -69303         -12060
   2772.00000000         125128         -19806         143631           5720
   2776.00000000          79250          26728          15666         -60588
   2780.00000000         -86765          -5361        -104696          62361
   2784.00000000         -16512          37504          -3474           3968
   2788.00000000         147206         -40814         -50131          -4430
   2792.00000000         121217            103          45024          58525
   2796.00000000          -4250          49467         -51472          -8725
   2800.00000000         -18733          17234          91867          81831
   2804.00000000         -94775          16045          26518         -74519
   2808.00000000          10816          -6222         -45766          65025
   2812.00000000          28663         -16942          -8439         134335
   2816.00000000         142605          40329          86008          21623
   2820.00000000         -13297          20153         -53078          50916
   2824.00000000          53897         -13209         -17301          -7596
   2828.00000000          23304          68114          31728          29381
   2832.00000000         -15667          -4829         -55051         -34895
   2836.00000000          49037          88028          40744           1084
   2840.00000000          19359          61726          59911         -48006
   2844.00000000         -85736         -10673          39935          21313
   2848.00000000         -45572         -95122          59735          27676
   2852.00000000         -18841          25357         -18597          38661
   2856.00000000          22123         108834          16997          26775
   2860.00000000           8560          -7660         -15796          47861
   2864.00000000          12579          69952         -37677         -11960
   2868.00000000         -40137        -112021        -112681          69455
   2872.00000000         -44380         -56548          -2938          19627
   2876.00000000          22263         -23658          -4474          67773
   2880.00000000         -58312         -95465          15008          15137
   2884.00000000         -51699          25985         -27889          38029
   2888.00000000         -58433          31475         -24297          11021
   2892.00000000         -19860         -85694          46732         -28515
   2896.00000000         -44838          66790           2626         -41039
   2900.00000000           9155          11535         -34240          19508
   2904.00000000          50600          76459         -78110         -46575
   2908.00000000         -71517         -32735         -10775          56033
   2912.00000000         -51612          58569         -40990          23113
   2916.00000000         -28674         -58014         -65482          40629
   2920.00000000          27676         -28277          28938         -13916
   2924.00000000           9211          -6910         -58244         -49653
   2928.00000000        -121661          37712          -9628           1805
   2932.00000000          64807          36833         -31270         -48522
   2936.00000000          46931          73312         -53851         -32812
   2940.00000000         -62240          -8077          59288         -63321
   2944.00000000          34448          -9735          29322         105917
   2948.00000000          99605          10185          -1622          -8037
   2952.00000000         -42089          10046         -30003          21524
   2956.00000000          87926         135321          48136          -7882
   2960.00000000         -32882          68801          -2750         -54298
   2964.00000000         -25660           -167         -27902          20520
   2968.00000000          58774         -10226          17694          37221
   2972.00000000         -95478          -6504          40997          67792
   2976.00000000          17704           9274          50894         -21654
   2980.00000000         -31960          48465          54507         -39274
   2984.00000000          -9182          41259         -20860         126710
   2988.00000000          43603         -39862         -30990          12956
   2992.00000000          18650          28196         -19903         -32870
   2996.00000000          11209         -41808         -18005         -39926
   3000.00000000         107717         -67432          53995          22168
   3004.00000000         -51140         -33640           9398          31157
   3008.00000000           6547          14750          85450          33250
   3012.00000000         -31746           5820         -77936         -67397
   3016.00000000         -63657          36081         -12857          28166
   3020.00000000         -50140         -53771         -80767          -7665
   3024.00000000         -29990          51458         -45287           1201
   3028.00000000         -16590         -62823         -39409         -44671
   3032.00000000         -31489         -84633         -76030            608
   3036.00000000         -39667         -58416         -18050          36328
   3040.00000000          16191         -89971          10806         -83529
   3044.00000000         -85719         -87138          -2472         -16280
   3048.00000000          -1521         -49814          35612         -13588
   3052.00000000          45302        -130212         -15240         -64959
   3056.00000000         -50059           6658          -3778         -18214
   3060.00000000           6025          74305         -37022         -71363
   3064.00000000         -64402          61897         -48488          26339
   3068.00000000          35302           9193          -8212          46419
   3072.00000000          36242         -44079          41050         -13462
   3076.00000000         -12993          28087         -46689         -12606
   3080.00000000          39712         -37538         -17549          18424
   3084.00000000         -13782           6562          21241          45026
   3088.00000000          -4351          13229          38223          11377
   3092.00000000          16013           7081         -46999         -64801
   3096.00000000          24460          12099          77728         -17145
   3100.00000000          47181          43523          56074          23654
   3104.00000000         -14358          28161         -38588          30059
   3108.00000000          13090         -88306          48194          -4364
   3112.00000000           4800         102770         -44529          43556
   3116.00000000         -22729          32304          63847         -48429
   3120.00000000         -59964          17594         -24052         -26974
   3124.00000000          46248          31709         -17347          16263
   3128.00000000           9503          67380         -34010          42632
   3132.00000000          35683         -17714          31405          -1912
   3136.00000000          29138         -20699          -2063          27449
   3140.00000000           2037         -24838          43826         -35328
   3144.00000000          71797           3462          95706          37472
   3148.00000000          78716         -43462         -19567          70226
   3152.00000000          -4767         -11532         -73072         -46727
   3156.00000000         -26424         -52388          13644          43578
   3160.00000000          22709         -22269          41063          -3484
   3164.00000000         102307          10366          66724         -23678
   3168.00000000          43048         -15764         -27729         -15494
   3172.00000000         -89293          17833         -49526          56711
   3176.00000000         -41012            227          -2824          21038
   3180.00000000         -61042          73020         -12947         -42254
   3184.00000000          25606         -27513           3572          16504
   3188.00000000          -6914          -6909         -63469         -46914
   3192.00000000         -27686           3968         -66761         -26782
   3196.00000000         -84734         -37708          18899         -52411
   3200.00000000         -11012          23309          16076          -6803
   3204.00000000          48717          -1637          -4776         -35614
   3208.00000000          -4818         -14372          24605         -47604
   3212.00000000         -20402         -29056          32805          19962
   3216.00000000         -13654          16351         -31153         -63627
   3220.00000000         -15956          51776           7199          -7774
   3224.00000000          27746          72680          -7365          11772
   3228.00000000         -27422         -23909         -12402          17978
   3232.00000000          -9105          -4629          77600         -16729
   3236.00000000          38187          42097          -4379         -25091
   3240.00000000           6992          25813         -38418          47928
   3244.00000000          15524          10837          25637           8129
   3248.00000000         -10938           3374          31385         -40941
   3252.00000000         -11723          20599          44888         -19077
   3256.00000000          -7165         -97526         -18089         -19393
   3260.00000000          21085           4726         -34353          61546
   3264.00000000          -9372          16370          37951          28040
   3268.00000000          53008          44707         -35871          -2942
   3272.00000000         -53612          81464         -69410          10660
   3276.00000000         -10806          15003          94156         -40913
   3280.00000000         -39851         -46431          37694         -29674
   3284.00000000          10304          14637          11703          -1263
   3288.00000000          14408          61705          43273          49969
   3292.00000000         111133         -17415         -45062         -35711
   3296.00000000          -2016          -7554           7023         -54224
   3300.00000000         -56525         -25587          66781          12132
   3304.00000000          22620          -7356          40373          35776
   3308.00000000           4370         -20135          39387         -71561
   3312.00000000         -55018         -20843          12191           6373
   3316.00000000          54369          40980         -29354          -8935
   3320.00000000         -27969         -42571          30687         -46017
   3324.00000000          21219           9425         -26717         -21627
   3328.00000000         -14586         -31119          19392         -28562
   3332.00000000          20932         -27151          15634          -2843
   3336.00000000          20206           7578          11200          35379
   3340.00000000         -33018          28223         -42966          38611
   3344.00000000           6049         -42615         -15603         -11461
   3348.00000000         -14411         -37967           5380           4808
   3352.00000000         -16270          23258         -33132           9018
   3356.00000000         -13266          -4839          48245           7655
   3360.00000000         -18866         -15802          46909         -57432
   3364.00000000         -23996          46161         -36171         -34995
   3368.00000000         -27300         -27135          15358          20243
   3372.00000000         -15835          12514          26045          -5680
   3376.00000000          17608          35986         -16240          37882
   3380.00000000         -49980          31787          -9659         -18122
   3384.00000000          -8854         -49373          33148           2519
   3388.00000000          -1479          -4630          19776         -28577
   3392.00000000         -23295          -4031          15931           7921
   3396.00000000         -12728          15945         -25685         -15813
   3400.00000000          33110          14249          24162         -32462
   3404.00000000          21754          51523         -61360          54332
   3408.00000000            -74          19599          -2885         -16959
   3412.00000000          22191         -20084          15808          19382
   3416.00000000          24763         -34104          69370          13395
   3420.00000000         -15312          47105          50866          -9422
   3424.00000000          31757         -13292           2468         -29288
   3428.00000000            -40          13058          42094          45743
   3432.00000000          27476         -47182          31162          47012
   3436.00000000         -17819          15967          27420          29352
   3440.00000000         -37600           -743          48249          16010
   3444.00000000          49821          26515          -6384          46055
   3448.00000000          56729           -152         -19725          37589
   3452.00000000           6999          35203          19479          10219
   3456.00000000         -40949          10127          37233            869
   3460.00000000          -4340          64960         -30016         -30448
   3464.00000000          22032          15638         -27300         -34369
   3468.00000000         -32418           7791          -3062          10078
   3472.00000000         -31244          19664          -1028          21030
   3476.00000000          -8371         -37518         -82934          12988
   3480.00000000          47605         -19277           4502          13361
   3484.00000000          18676         -27732         -13354          -4279
   3488.00000000           4605          34084          34109         -51202
   3492.00000000          -1815          -1972          -6807           2768
   3496.00000000         -32791          31120         -15795          23689
   3500.00000000           3210         -63724           2457         -16916
   3504.00000000          30646         -21605         -11964         -22765
   3508.00000000          22273           5475          35582         -18014
   3512.00000000         -18314           8792          42066          47006
   3516.00000000           2742          -7204         -24876          -4168
   3520.00000000         -19297         -56447          -2701          -3845
   3524.00000000           9782         -49635           1634          -1433
   3528.00000000         -16677           4869          -4484          -6855
   3532.00000000         -24727          -2945          17573          -4545
   3536.00000000          14845         -11053         -21725          -3668
   3540.00000000         -14929           5224           2002         -22099
   3544.00000000          12398         -32556          12139          25779
   3548.00000000          18483         -17326         -15946            216
   3552.00000000          27299          -5350           4985          10068
   3556.00000000         -24475         -23826          31305          15724
   3560.00000000         -15938          17585         -20334         -22082
   3564.00000000          -8382          -6043         -19377         -47450
   3568.00000000          12129         -27800           6199         -25870
   3572.00000000          61285           1737         -14581          19977
   3576.00000000         -12312          31357          38248           6012
   3580.00000000         -25455          -5180          21449          18457
   3584.00000000         -17075          -6633          19385          14975
   3588.00000000          -7895          -4140          17125           -685
   3592.00000000          34678           6472          -9812         -18804
   3596.00000000         -33932         -18270          10582         -11077
   3600.00000000          26947         -56596          21064          -1044
   3604.00000000          -8162           4704           2302           8539
   3608.00000000         -37737          22033          48535         -37804
   3612.00000000          23241          11462          16441          -4389
   3616.00000000          39319          -8406         -18249          -1835
   3620.00000000          10879          -4576          12821         -12606
   3624.00000000          -8700          48626         -30913           7517
   3628.00000000          40608         -24674           5060          -5112
   3632.00000000           1949           -325          40903           5766
   3636.00000000         -37757         -31790         -19321          53568
   3640.00000000         -12104           5531          50028         -11361
   3644.00000000          -9886          42570         -18027         -16368
   3648.00000000           9124         -19163          33538           2187
   3652.00000000          25913         -17268         -12180         -17851
   3656.00000000         -47606          10307           3287          -2749
   3660.00000000         -24983          15813         -22283          -7799
   3664.00000000         -18275          11193          35845         -18389
   3668.00000000         -25013          -2822            427         -16997
   3672.00000000          14758         -14940           3459         -19776
   3676.00000000         -28951          24930         -20748         -27225
   3680.00000000          18254         -20984          12513          -6821
   3684.00000000         -36442           4651         -17662          44233
   3688.00000000         -19333           7564         -39126           6294
   3692.00000000          -2741          12316         -11751          28481
   3696.00000000           4876         -21725          17714          18256
   3700.00000000           2954          16878          23607           2073
   3704.00000000          24035         -20671           7366           3502
   3708.00000000           7211          -5822          -7384          16042
   3712.00000000           -956           5440         -10419          10377
   3716.00000000         -10784           1712          -9748           -232
   3720.00000000           9862           2814            887          -4760
   3724.00000000         -17679         -23111         -14833           1229
   3728.00000000         -49020          -1253           5820          17042
   3732.00000000          -5468          24048          22438          13287
   3736.00000000          12489          20331           3924           2375
   3740.00000000          17545           -392           2139          16484
   3744.00000000          10016          -6953          -8734           3314
   3748.00000000            641          20791           9763          -7171
   3752.00000000          10900          21954          10384          24473
   3756.00000000          -2144          13862          36323         -13664
   3760.00000000          40777           1575          12608         -15823
   3764.00000000          23273          10161           5559          14138
   3768.00000000           3758           5760          -3744            831
   3772.00000000          17715         -12878         -17857          17906
   3776.00000000          -2468          -5875         -41989          29196
   3780.00000000          12796          -5580          10085          12403
   3784.00000000         -12308            962         -18506          -5791
   3788.00000000           7722          -4964         -13146          20983
   3792.00000000         -14972         -23283           8814          40005
   3796.00000000            666         -38812          47655         -13088
   3800.00000000         -28776          12337         -10627          -7351
   3804.00000000          -5599          -1204           4230         -13599
   3808.00000000          -8643          -3760          -5727           2730
   3812.00000000          13588         -15618         -39276         -10931
   3816.00000000         -16918         -16675            992         -23752
   3820.00000000          15877           2959         -11000         -14324
   3824.00000000           2839          26199           9173           1454
   3828.00000000          -9131         -10330          24501          -2789
   3832.00000000           -541           -736         -21399         -18045
   3836.00000000          -5805          13730          12926           4740
   3840.00000000          17657          14358         -14526          34130
   3844.00000000          15223         -20033           6464           9201
   3848.00000000         -11834           -432         -23936          -6008
   3852.00000000          11173         -31043          14445           3246
   3856.00000000          -4954          22859          31554           7572
   3860.00000000          24217           6901          36891           3695
   3864.00000000          30729          -4441          27718         -32541
   3868.00000000          -5061          16946         -10038          -4304
   3872.00000000          18825          -1954          23777          -6578
   3876.00000000          21991          -5138         -13078          39265
   3880.00000000         -13430           2185            192           7532
   3884.00000000           2670          24247          -4679           1854
   3888.00000000          -8339         -11323          -3463           2899
   3892.00000000           2307           8954          24626          29692
   3896.00000000           2644          -3097          31869          -6742
   3900.00000000          -2036          12759          -7239         -14150
   3904.00000000          11801          -4396         -20993          15031
   3908.00000000          -2871          -5076           4947           6075
   3912.00000000          12635           4787           2590         -24307
   3916.00000000          -6954          26716          -2111           3765
   3920.00000000         -17184          13469          14235          11328
   3924.00000000          16362          12169          -1305          -7820
   3928.00000000           4822          -5115          -2442         -23778
   3932.00000000          -2242           -547          -7065         -21254
   3936.00000000          -3952          13005          22018          14146
   3940.00000000          -3184         -10475         -20873           4986
   3944.00000000          16053            725          -2934           5598
   3948.00000000          -3377         -23672          -3606         -17949
   3952.00000000         -12327           4806         -11836          11657
   3956.00000000          -4058          17424         -13183          -2212
   3960.00000000          -6774         -12064          -2797          -2696
   3964.00000000           6652          -6204           1914          26789
   3968.00000000           5018          -1099         -26095          -3791
   3972.00000000          -3887         -13164          -6650           9069
   3976.00000000          13779         -21350          -6800          25792
   3980.00000000          -1701         -11720         -13776          -2613
   3984.00000000           7992          -4878         -11276          17531
   3988.00000000          21945          -4537         -16584            572
   3992.00000000           6996           4509          -5443          -4304
   3996.00000000           3473         -21949         -29378          -8120
   4000.00000000          -6837          14655           -741          -2599
   4004.00000000          -7064         -12682          15199           2726
   4008.00000000          26582         -15230         -14868         -11364
   4012.00000000           3831         -31376          -5200          11090
   4016.00000000          20335            516           8883         -14919
   4020.00000000         -10418           7611          -4717           8297
   4024.00000000           7669          -8529         -13687          28510
   4028.00000000          -3208          -2768          -5603         -23513
   4032.00000000            -99           6582           7191          26496
   4036.00000000           -680           1217          15245          11022
   4040.00000000          14566           1518           7790          -4094
   4044.00000000          21408          15317          10917          -3038
   4048.00000000           1229           3264           2688          18682
   4052.00000000          13051          26925           2610          27849
   4056.00000000           7703          -1467          -1570            673
   4060.00000000          12646           2201          -3181          -8890
   4064.00000000          -1359          12895           7783          12138
   4068.00000000          16078          -2399         -13261         -10014
   4072.00000000          -7072           4809           7180          24668
   4076.00000000            -62            730         -28605          18531
   4080.00000000          11631         -18674          -2832          -1311
   4084.00000000          14697           9856           3326           1120
   4088.00000000          -4123           5754          19969             25
   4092.00000000          -4918           1145           7272          19367
   4096.00000000          12783          15332          18342          -5439
   4100.00000000          -2583            672           -924         -10114
   4104.00000000           5088          -4363          11249          10804
   4108.00000000         -26687         -18925         -13749           6552
   4112.00000000           3265          14759           6287          -4091
   4116.00000000           7135           3392          -1963           -583
   4120.00000000            291           1666           1596         -10687
   4124.00000000            855          -7344          19871          -1303
   4128.00000000          -9446         -11119          17517           2821
   4132.00000000          -5845          -2680         -18001           3017
   4136.00000000         -14969           7642          -6214         -11070
   4140.00000000          -1988          12370           -979          -3420
   4144.00000000         -10794          -3898           8685           6424
   4148.00000000         -12757            219           7153         -18391
   4152.00000000          -5530          -2554           7223         -11717
   4156.00000000           3629          14641          13448          -6595
   4160.00000000          -6469          -1115           2842          -7358
   4164.00000000           2958           1095           4274          -6167
   4168.00000000           5726          11392          13742           8587
   4172.00000000           6288         -14852         -17287           2253
   4176.00000000         -11815            162          -7738          -2127
   4180.00000000          -1856            597          -9794          -5751
   4184.00000000          -8194          16611          -3249          16591
   4188.00000000          -3948           8306         -12958           5850
   4192.00000000          13535          18505          13678          15706
   4196.00000000         -10918          15690         -10359          -5412
   4200.00000000           6889           -513         -10675            512
   4204.00000000          -2976           2137           3172          11538
   4208.00000000          -7294            -71          -4265          11775
   4212.00000000          -7437         -20274           5449          -9036
   4216.00000000          10576           1777         -11131          -3159
   4220.00000000          -1858           5084          -7515          19892
   4224.00000000           3943          -1866          -7822           -280
   4228.00000000          -5388           4806           4462            -38
   4232.00000000         -26707          -6540          11478          14332
   4236.00000000           -854          -7914          -4587           7694
   4240.00000000         -16698          -3921          -1163          -3988
   4244.00000000           3344           8068          19809           5956
   4248.00000000          -1511          -7425         -22973            343
   4252.00000000          -5925           7467          11301           2007
   4256.00000000          -4751          -9225          10183         -10219
   4260.00000000            809           1422         -17582          11973
   4264.00000000           9656           1237          -5150         -13517
   4268.00000000         -17087          -5745           1064          -2172
   4272.00000000           5423           8781         -12076          -2362
   4276.00000000           5488           4170          -7337         -11308
   4280.00000000          -7880           -397          -2442           2635
   4284.00000000         -19002            740           9630            533
   4288.00000000           3609          -3667          -9686          12357
   4292.00000000         -10899          -2563          -4356           8254
   4296.00000000           4754          -8727           -279          14350
   4300.00000000          -7491           2485         -11904         -12725
   4304.00000000          14761         -10349           3462           9289
   4308.00000000          14375          -3246           -255           -385
   4312.00000000          -5904           7280          -4531           8175
   4316.00000000           8934          -6310          10457          -5859
   4320.00000000          -8850          -5855          -4475           2148
   4324.00000000          -3622            819          -1130           1673
   4328.00000000           4228          10650         -13004           7356
   4332.00000000          21077           2959           2213            490
   4336.00000000           8348          15796           -810           4478
   4340.00000000           4561           3797          -1312            886
   4344.00000000           3430          14953           -862          13067
   4348.00000000           2639          -1524           5003           -257
   4352.00000000           3182           1436         -11084           1450
   4356.00000000          -5663          13187           -409            194
   4360.00000000           3419            611          -7288           4070
   4364.00000000           4219          -7879           5999          24987
   4368.00000000          10411          -1359          -4545           3349
   4372.00000000           1864            887         -10056          -1976
   4376.00000000          -2553          12096          -7599           7792
   4380.00000000           -114           7893          -2596          -9966
   4384.00000000           2509           9351          -2688           -571
   4388.00000000          -6738           -680           7337          -1774
   4392.00000000          -5456           1970          -7586         -12695
   4396.00000000          -1633         -12895          -8352          -5687
   4400.00000000          12615            436           9880         -13267
   4404.00000000          -5809           3128          -4317          14482
   4408.00000000          -8297          -4471         -15467          -5584
   4412.00000000           6543          -8611          -4510          -2596
   4416.00000000          -5946          -1085          -4154         -14039
   4420.00000000           4384          -8468           7019           -674
   4424.00000000           -639           5659          -1625         -10810
   4428.00000000           6054          -9815          -5846             97
   4432.00000000           2257          -9377         -12405          -6157
   4436.00000000          -8684          -5137          -2975          -9728
   4440.00000000          -5462         -19469          10948           7105
   4444.00000000           5219           7509          15977           4270
   4448.00000000          -6827           4271          -4772           3989
   4452.00000000          12059          -5825          13894          -6698
   4456.00000000           2569         -10050           9846           1695
   4460.00000000            318          11571           4837          14908
   4464.00000000          11937           8813           5282          10827
   4468.00000000           6370           6056          -7037             49
   4472.00000000           2389           -711          -7435          -1004
   4476.00000000          -5041          -6603          -8843           1103
   4480.00000000           5624            -32           3496          -3824
   4484.00000000           1355          -1431          -1946          12355
   4488.00000000          -3465           4201           1970          18230
   4492.00000000           5654           6322          -9302         -10366
   4496.00000000           2210           5109           1708           2157
   4500.00000000         -14074         -11331           1106           6320
   4504.00000000           7559           1130           -310          -7272
   4508.00000000           3958           -351          -3521           3112
   4512.00000000          -7573          10158          -5284           4842
   4516.00000000           5082          -3125            942           9963
   4520.00000000           2329           3590          14283           6072
   4524.00000000           -286          -2724           6062          -7961
   4528.00000000          -6198           1032          14459          -8734
   4532.00000000          -2608          -2200           2273            311
   4536.00000000           2681          10600          -3134          -5918
   4540.00000000          -3914           9483          -5438          -3921
   4544.00000000            872           9860            -88           1451
   4548.00000000          -3174          -6239           8147            708
   4552.00000000           1105          -2739           4162            708
   4556.00000000          -5261           1787           4198          17468
   4560.00000000           5298          -2753          12124           5678
   4564.00000000          -8833           2847           1286          -5473
   4568.00000000             43           3992           -691            612
   4572.00000000          -3908          -4264           6313           1536
   4576.00000000          -4280            300           1859           -999
   4580.00000000           6153           7044          -2237            661
   4584.00000000         -13122          -5613           -917           -801
   4588.00000000           3380            803          11095           -591
   4592.00000000         -13229          -9886          -2838           6803
   4596.00000000           8710           5599         -11953           1909
   4600.00000000          -5406          -4612         -10766          -7338
   4604.00000000           -338           3754           8618          10359
   4608.00000000           1212           3379         -11472          -4286
   4612.00000000           -198           2841           4789           5948
   4616.00000000          -2708           1217           -665          -8469
   4620.00000000          -3626           -925           5044           9213
   4624.00000000          -3170           -434          -4303          12440
   4628.00000000           5728           6724          -2792          -2352
   4632.00000000          -6458          -4998           -505           4256
   4636.00000000           4856          12841           4325           6507
   4640.00000000          -6363           4389           3919           1920
   4644.00000000           3694           3976          -3601           9057
   4648.00000000          -2381          -2171          -3900          -9913
   4652.00000000           7548            623           2539           2311
   4656.00000000           -572         -13259          -4214          -8659
   4660.00000000           1458           4652          -3849          -5019
   4664.00000000           5499           -547            832          -6451
   4668.00000000          -5814           2709          -1713           8741
   4672.00000000            299           1721          12344            426
   4676.00000000           1862          -1343          -1105            143
   4680.00000000           2658           3113           6972           2384
   4684.00000000           1101            -51          -2668           1494
   4688.00000000          -5748          -4037             47          12826
   4692.00000000           -886            435           3196          -1933
   4696.00000000          -9349          -3604          -1133          -1544
   4700.00000000           5553           3165          -2735         -11375
   4704.00000000           9639         -11175          -5372           7190
   4708.00000000          -6710           3127           3334          -2991
   4712.00000000          -3163           3216           4624          -2486
   4716.00000000           1244          -9152           2345           -192
   4720.00000000          -5018          -5603           5012          -5359
   4724.00000000          -2936          -3300           -648          -2468
   4728.00000000          -1784             37           7505          -8771
   4732.00000000           6432          -4609            -18          -8187
   4736.00000000          -5030           5899           3019           8366
   4740.00000000          -7118           5947           7747          -1015
   4744.00000000          -1605          -3179           8467          -3519
   4748.00000000           7950          -2807          -1543          -1344
   4752.00000000          -6793           1559           6539          -2138
   4756.00000000          -8377           -872           1985           4492
   4760.00000000          -4050           1196           4601          -2693
   4764.00000000          -5968          -1664           3353          -6664
   4768.00000000           -286          -3778           -751           3807
   4772.00000000           4788          -6242           -490          -1042
   4776.00000000          -1536            534           3034            657
   4780.00000000          -3952          -1633          -5602          -3669
   4784.00000000          -2696          -1972          -2992           1415
   4788.00000000          -3032           2572           1484          -1565
   4792.00000000           1872           4215            -87           5305
   4796.00000000          -4114           2524          -1293          -1714
   4800.00000000           -819           3957           1044          -4002
   4804.00000000           1574          -5975           3512           1182
   4808.00000000          -2282           1025           3764          -3166
   4812.00000000           5303           3432           4085              9
   4816.00000000          -2952           2954           7260          -1107
   4820.00000000          -5180          -3772          -2934          -1557
   4824.00000000           3126           2531            658           6294
   4828.00000000           -610           2485           2725            782
   4832.00000000          -7308            734            484           3869
   4836.00000000          -2109           -743          -3315          -2100
   4840.00000000         -10637          -4921          -2592          -1085
   4844.00000000          -7216           6989          -7284          -1958
   4848.00000000           4031           3886           2562           3598
   4852.00000000           1171          -9911            231          -3247
   4856.00000000           6125           -824          -1934          -3676
   4860.00000000            611          -1766           5696          -3293
   4864.00000000           -975           3903          -9434          -1020
   4868.00000000          -3844          -2915           1376           6430
   4872.00000000           7019          -1450           2025           1129
   4876.00000000           1640          -4466            521          -3730
   4880.00000000          -7701            155           3835           2426
   4884.00000000          -9603           2385          -1500          -2796
   4888.00000000           2346          -3467          -4498           7339
   4892.00000000          11146           1282           2497           6613
   4896.00000000           1700          -3004          -4942          -5219
   4900.00000000          -5498          -5509          -3974           1665
   4904.00000000            102          -3372             33          -1079
   4908.00000000           5335           -577          -4861          -1449
   4912.00000000          -3262           -704            555           3522
   4916.00000000           -776          -3191          -2633           4098
   4920.00000000          -2476          -3689          -2564          -5547
   4924.00000000            -28           5405           2061           -138
   4928.00000000          -2914           3619           -686          -3468
   4932.00000000           1328           -165           1898          -2244
   4936.00000000           4353          -6075           3744          -5523
   4940.00000000           2523          -3119          -3400           3173
   4944.00000000           3110           1657           -314          -1078
   4948.00000000          -1035          -2753           2598           1425
   4952.00000000          -7059          -5180            498          -4186
   4956.00000000          -1695           4889           4513          -8155
   4960.00000000            982          -3080           1987            252
   4964.00000000            250           4720           5433           6017
   4968.00000000           1200           -111           -265          -1735
   4972.00000000           -346           4167           2020            470
   4976.00000000          -2433          -4056           3806            660
   4980.00000000           2932          -6351           5574           -137
   4984.00000000           2051           -126           1222            627
   4988.00000000           2533          -8933          -4131          -5954
   4992.00000000           6263           1936           1156           6026
   4996.00000000          -5658          -5567           5358          -2432
   5000.00000000           -470           7859           3210          -2164
   5004.00000000           -847           -278          -8859           1288
   5008.00000000           3961           1475           1355           1831
   5012.00000000          -1018           2255           1250           3120
   5016.00000000           1362          -2750           5048          -1509
   5020.00000000          -7809           3026           4652           1744
   5024.00000000           1015           4138          -3014           4650
   5028.00000000           3302            227          -3028           -341
   5032.00000000            832          -2347           1684           -471
   5036.00000000           6477          -1077           1429          -1455
   5040.00000000           -453          -3608           -677          -2759
   5044.00000000           4936          -3775           2029           1177
   5048.00000000          -2682            742           5269          -2188
   5052.00000000            598           -557          -8810           -382
   5056.00000000           1717           1255           1078           1288
   5060.00000000          -2540          -3270           1047           -126
   5064.00000000            576          -1050           8526           4598
   5068.00000000          -3259           1296          -6003          -1084
   5072.00000000          -2082            554          -3712           1355
   5076.00000000           -292           3653          -1559             71
   5080.00000000             36          -1612            573           -688
   5084.00000000          -1840          -6225           2751           -723
   5088.00000000          -5098          -2311          -5691           1607
   5092.00000000          -4648          -4983          -3229          -2809
   5096.00000000          -3235          -1834          -1597          -1516
   5100.00000000            552            306           1364           1149
   5104.00000000          -1983          -2866          -1354           2177
   5108.00000000           4757          -1768          -1018          -1952
   5112.00000000          -6030           2690          -3132          -1152
   5116.00000000          -4935          -1073           1818          -1498
   5120.00000000          -2586           -716            703          -2500
   5124.00000000          -5499          -2285          -5178           1582
   5128.00000000           8919            296           2293           2692
   5132.00000000           1210           3645          -4434            793
   5136.00000000           -442            754           2361           4937
   5140.00000000           -403          -2733          -2886           -518
   5144.00000000             49          -3672            933           -576
   5148.00000000           2882           5588            109           -194
   5152.00000000          -4715           1802           3735           2360
   5156.00000000          -1450           4079             96           -875
   5160.00000000            288            510          -2381           4998
   5164.00000000           -764            774          -1177          -1093
   5168.00000000           1561           3161           -727            178
   5172.00000000           2530          -1668          -3010           3112
   5176.00000000            640            -28           5584           2262
   5180.00000000            633          -1022           2946            432
   5184.00000000           3397           2642           1248            859
   5188.00000000           -574          -1499             24            749
   5192.00000000            -61          -4398          -1593          -1122
   5196.00000000           2249           -749           -201          -1313
   5200.00000000           -319           -688           3887           1323
   5204.00000000           -910            334           3923          -2506
   5208.00000000           -161          -1383           -409          -1634
   5212.00000000           2648          -4844            446           2021
   5216.00000000           3880          -3336           -857           3067
   5220.00000000          -1386           1345          -4415          -1579
   5224.00000000           2867            819           4048           3579
   5228.00000000          -4630          -6105          -3169             35
   5232.00000000          -1134          -1370           1552           -792
   5236.00000000           1626           2266          -1836           4122
   5240.00000000           -864           1512          -1986          -4830
   5244.00000000          -2309           1095           3833          -1026
   5248.00000000           1132          -3624            619            739
   5252.00000000          -2286           -219          -1818          -2845
   5256.00000000          -1840           6343          -4456            364
   5260.00000000           -350           1045          -2381          -3646
   5264.00000000          -7691          -1053           3825           -778
   5268.00000000           -806           -863           1016           1774
   5272.00000000          -5143             -0          -1115          -1643
   5276.00000000           -808          -1400           -455          -5111
   5280.00000000          -2982           2371           3401            527
   5284.00000000           -286           -491          -1172           2839
   5288.00000000          -4335           2160          -2666           2402
   5292.00000000           1901           1631           -689           1147
   5296.00000000           2798           1365           1104           1585
   5300.00000000            268            310           2558           1116
   5304.00000000           1853           2852          -2806          -1757
   5308.00000000          -1940          -1737          -2249           1068
   5312.00000000          -3700            174          -2513           2476
   5316.00000000          -4596            669           4261            437
   5320.00000000          -1004          -4245          -2574           1845
   5324.00000000           1572           2067          -1740          -4474
   5328.00000000           1948             25          -2281          -1081
   5332.00000000           -807            315           4135           3028
   5336.00000000           2204          -1334           -435           1154
   5340.00000000           2579           1650           2814            298
   5344.00000000          -1520          -3921           -950           1962
   5348.00000000            931            787           3377           6457
   5352.00000000           2840           4286          -1503           1245
   5356.00000000          -2107          -2857           1126           -104
   5360.00000000           1567           3751           3348            543
   5364.00000000          -2391           -345           1119            567
   5368.00000000           2716          -1090          -1785           2199
   5372.00000000           1332          -2747           2443           -421
   5376.00000000            700           -341          -1161          -1808
   5380.00000000          -2277           5332           -900            310
   5384.00000000          -3320           1243            584          -2632
   5388.00000000            706          -1439          -1038           1876
   5392.00000000           3291            459          -4851            803
   5396.00000000          -1105          -1993           -934           1574
   5400.00000000           3269            173          -2755          -1704
   5404.00000000          -2362          -3751           -512          -4479
   5408.00000000           1521            325           1441          -2318
   5412.00000000           1406            179          -2426            778
   5416.00000000           -177           2078           1665           3626
   5420.00000000            682            198          -1655            793
   5424.00000000           2225          -2470           -894            582
   5428.00000000          -1043          -2544            -22          -1039
   5432.00000000           -485            730            232           -535
   5436.00000000           3144          -3885           2308          -1944
   5440.00000000           3669           2778           2492           1426
   5444.00000000            196           3371           1564           2745
   5448.00000000            524            311            456          -1196
   5452.00000000          -2168            827          -2731          -2089
   5456.00000000           2386          -1412          -1113           4456
   5460.00000000            -63            899           3786           1104
   5464.00000000            821           1006          -1425           2727
   5468.00000000           2204          -1665           3534           2912
   5472.00000000          -1199             19          -1875           1535
   5476.00000000           1646          -3001           2439           -432
   5480.00000000           -983            938          -3397           -729
   5484.00000000           2559          -1405           -221            146
   5488.00000000            572          -3809           -385           -546
   5492.00000000           -407          -1250            398           1455
   5496.00000000            898          -1896            -40            538
   5500.00000000             48           2283           1048             56
   5504.00000000           2228           1823           2757          -1464
   5508.00000000           2091          -2064            911           1729
   5512.00000000           1670           1123           2807           -883
   5516.00000000          -1492          -2965           1322           -674
   5520.00000000             42             11          -1763            101
   5524.00000000           -571             14          -1472             93
   5528.00000000          -2962          -1668              3           -432
   5532.00000000          -1653            656          -2353             46
   5536.00000000          -1837           1669            860          -2023
   5540.00000000          -1691          -1626          -1268          -1676
   5544.00000000            249           2621           2930          -1648
   5548.00000000          -2320          -1371          -1379          -1102
   5552.00000000          -2500          -2228            598           2259
   5556.00000000          -3811          -1667           -887            411
   5560.00000000          -1524          -2510           1114          -1763
   5564.00000000          -1081            704           2681           -477
   5568.00000000          -2114           -855           -530            619
   5572.00000000          -1702          -1576            870            614
   5576.00000000           1636          -1751            430           2129
   5580.00000000           -764            460            840            969
   5584.00000000            948            391          -2094           1916
   5588.00000000            323          -2436          -1542          -1900
   5592.00000000           1195            111           -425          -1569
   5596.00000000           1486            -88           -152            405
   5600.00000000           1647            -54           1311           2163
   5604.00000000            155          -1170            816           2394
   5608.00000000            622            793           -650           -243
   5612.00000000           1330           1073          -2565            875
   5616.00000000           -214           -226           1625             22
   5620.00000000           -140          -2953           -879           2480
   5624.00000000           2030           1165           2463          -1860
   5628.00000000          -1248             96           -497           1693
   5632.00000000            860           1453           2508          -1141
   5636.00000000           1144           -118           -766           -377
   5640.00000000           1342           3008          -1360           2661
   5644.00000000           -817          -1615           -871             42
   5648.00000000           2005            134            813           -421
   5652.00000000             61            953          -2349           1403
   5656.00000000           1736            543           2156           -797
   5660.00000000             -3            499          -2189           -374
   5664.00000000            363          -1457           2223           1436
   5668.00000000           -973           1472            109           -361
   5672.00000000           -254            690          -1721           1563
   5676.00000000            923           -193          -2574            932
   5680.00000000           1378             80            142            768
   5684.00000000          -1751           -379           -744           -733
   5688.00000000          -3875          -1780           -857          -2595
   5692.00000000           -191           -973          -1292           -424
   5696.00000000            943           2968            834           -836
   5700.00000000           -491           1107          -2454            177
   5704.00000000           -382           2082            659            963
   5708.00000000           -103          -1465          -1084          -1027
   5712.00000000            643            808            486           -130
   5716.00000000            815            568            368            -69
   5720.00000000           -488            574            400           -252
   5724.00000000            307          -1352          -2276            326
   5728.00000000            690           2112             -1          -1956
   5732.00000000           -248           -179           -672           1255
   5736.00000000           1036            484           1151            684
   5740.00000000            -71            291           1771           -498
   5744.00000000            518           -464            109           2245
   5748.00000000           1087            660           -282            303
   5752.00000000           1310           -716           2091          -2306
   5756.00000000           -380            166           2140           -181
   5760.00000000          -1514          -1467           2059          -2421
   5764.00000000           1979            310            939          -1405
   5768.00000000           -815           -273           -691           1756
   5772.00000000             82             17           1766           1190
   5776.00000000             47            149           1027           -544
   5780.00000000           1238           -269            276           -938
   5784.00000000          -3264           -551            -91            445
   5788.00000000            492           1797           1640           -541
   5792.00000000           2102           1423          -1422            416
   5796.00000000           1456           -723           1382          -1794
   5800.00000000           -699           1129           -206           -387
   5804.00000000           1054            669          -1600           -965
   5808.00000000          -2047           2260          -1117            595
   5812.00000000           -137            296            114          -1154
   5816.00000000            834            377           -339           2372
   5820.00000000            173           1067            206          -1264
   5824.00000000           1643           -811            452           -812
   5828.00000000             26          -2813            524           -397
   5832.00000000            987           -381           -548            512
   5836.00000000           -762           -916           1149          -1112
   5840.00000000          -1228            957          -1453            435
   5844.00000000           -306            239           1334           -827
   5848.00000000          -2611           -739            676           -619
   5852.00000000            741            457          -1451           -700
   5856.00000000           -115           -706           1931            622
   5860.00000000           1348           -198            630           1444
   5864.00000000          -2192           1226           -180           -360
   5868.00000000           2429           1243          -1558           1037
   5872.00000000             80           -116            163           -467
   5876.00000000           1441            245           -589          -1354
   5880.00000000           1732            967           -939            801
   5884.00000000            585           1618          -1184           -593
   5888.00000000            209           1904           1255           -229
   5892.00000000            585          -2544           -264          -1780
   5896.00000000            362           3189            537           -741
   5900.00000000           -483            178            519           -346
   5904.00000000           -185            339            973            466
   5908.00000000           -681           -560            645            517
   5912.00000000            160            -92          -1180            746
   5916.00000000            469            213            730           1155
   5920.00000000            422          -1025            -65             25
   5924.00000000          -1563            -46           1134           -275
   5928.00000000           1057            359            661           -566
   5932.00000000           -904           -106           -327           -396
   5936.00000000            830            423            376            -62
   5940.00000000           -565             53           1074           -431
   5944.00000000            369           1736           -707           1463
   5948.00000000            469          -1408           -157           1450
   5952.00000000           1347           -583            216           -394
   5956.00000000            431           -163            -18           -756
   5960.00000000           -719           -903           -669           -494
   5964.00000000           -145           -751            310           1679
   5968.00000000            298            150            913           -106
   5972.00000000            645           1409           -967            450
   5976.00000000           -969           1119            -85          -1480
   5980.00000000            248           -375          -1165           -385
   5984.00000000           1250           -235            -41           -230
   5988.00000000            266            853            -13           -259
   5992.00000000           -932            822            517            986
   5996.00000000            201           -766           -424           1075
   6000.00000000            574           -456           -512             36
   6004.00000000          -1570           -904           1698            891
   6008.00000000           -816          -1446           -480            200
   6012.00000000           1052           -810           -725           1424
   6016.00000000           1021           1443          -2594           -305
   6020.00000000           1888             68             18           -408
   6024.00000000           -884          -2028           -660          -1250
   6028.00000000            337           1271            104           1533
   6032.00000000           -645           -516            594           -655
   6036.00000000            821          -1543           1218            853
   6040.00000000          -1033            264          -1457            151
   6044.00000000           1119            732            425              7
   6048.00000000          -1428           1877            802           -328
   6052.00000000           -585            391              9           -540
   6056.00000000           -531            211            300            199
   6060.00000000            -63           -634             77            319
   6064.00000000           -874            -43           -414           -656
   6068.00000000           -595            346            143            733
   6072.00000000            173            388          -1210           2136
   6076.00000000           -628           -266           1856           -864
   6080.00000000             72            338             59            224
   6084.00000000            802           1142            547          -1020
   6088.00000000            181           -298            611           -292
   6092.00000000            258           1287            422           1322
   6096.00000000           -455           -596           -706            -52
   6100.00000000            221            156            159             30
   6104.00000000           -249           1080             48            403
   6108.00000000            188            497            173            -99
   6112.00000000             69            300            591           -696
   6116.00000000          -1164           1855            773           -211
   6120.00000000           -722            195           -315            440
   6124.00000000             19            473           -102           -160
   6128.00000000            420           -470            -18           -977
   6132.00000000           -457           1469           1044           1240
   6136.00000000            365            326           -360           -117
   6140.00000000            352           -101           -390            764
   6144.00000000           -489            412            355           -701
   6148.00000000            996           -475            895            694
   6152.00000000           -141            463           -656             95
   6156.00000000           1077            440            227           -576
   6160.00000000            380           -711            386           -841
   6164.00000000            134           -660          -1399          -1054
   6168.00000000           -319           1128           1103            203
   6172.00000000           -430            313           1363            717
   6176.00000000           -103            -12             12           -449
   6180.00000000            668            558            547           -280
   6184.00000000           1513            901           1526            100
   6188.00000000            813            461            596           -305
   6192.00000000            626           -328            614           -874
   6196.00000000            134            613             10             15
   6200.00000000           -576           -562           -581           -994
   6204.00000000           1122           -207           -243           1083
   6208.00000000            -61          -1514            112             29
   6212.00000000             12            446           -200           -212
   6216.00000000           -157           -170            421           -202
   6220.00000000          -1729           -207           -697           1346
   6224.00000000           -831            189            284           -381
   6228.00000000          -1042           -360             66           1259
   6232.00000000            -95            484            758            585
   6236.00000000            394           -580           -246            497
   6240.00000000            881           -564           1296           -238
   6244.00000000            170           -422            693           -434
   6248.00000000           -986            -88            439           1543
   6252.00000000            211            863           -674           -575
   6256.00000000            407            972            565           1118
   6260.00000000           -444           -367             86           -955
   6264.00000000           -203           -811            211            729
   6268.00000000            267            -76           -437            548
   6272.00000000          -1075            674           -408           -986
   6276.00000000            712            690            387            -93
   6280.00000000           -553           -166           1451           -766
   6284.00000000           -905            -74           -812            943
   6288.00000000            658            158             -9            319
   6292.00000000            714            116            -82             42
   6296.00000000            201            816           -193           -261
   6300.00000000            281            248            974            121
   6304.00000000           -465             44            -24             72
   6308.00000000            536            360           -319           -242
   6312.00000000            742            567            658            276
   6316.00000000            118            333           -564            427
   6320.00000000            883           -170            -22           -530
   6324.00000000            571           -282            363            314
   6328.00000000            -86           -465          -1346            234
   6332.00000000            658            333           -149            -14
   6336.00000000            335           -249           -150           -299
   6340.00000000           -625            120            215             81
   6344.00000000           -390           -422            283            223
   6348.00000000            276             72            843           -381
   6352.00000000          -1426             92           -815           -449
   6356.00000000            228            245            317           -703
   6360.00000000           -698            160           -639           -767
   6364.00000000            -23           -104            568          -1144
   6368.00000000           -750            130            150            596
   6372.00000000           -135            319            213           -472
   6376.00000000           -926           -184           -761           -703
   6380.00000000            164            680            304            -98
   6384.00000000           -707            649           -830           -103
   6388.00000000            655             88            638            306
   6392.00000000            451           -495           -322           -158
   6396.00000000            942           -347             47            219
   6400.00000000             69            172              4           -152
   6404.00000000           -970            701           -422          -1412
   6408.00000000           -599            335            255           -355
   6412.00000000            849            412           -227           -122
   6416.00000000            106            -41            298           -204
   6420.00000000           -357            756            837            426
   6424.00000000           -175            332            -76             51
   6428.00000000            287            982           1002            208
   6432.00000000            850            202           -148            372
   6436.00000000            349             38            549            129
   6440.00000000           -226             64           1392            182
   6444.00000000            708           -643           -355            591
   6448.00000000            166           -300           -174           -664
   6452.00000000             57            470            204            201
   6456.00000000            179           -726            -39            644
   6460.00000000            363            -77            247           -172
   6464.00000000            305             12           -677          -1248
   6468.00000000            -47           -115            196           -426
   6472.00000000           -529            452            157           -570
   6476.00000000            281            572            513           -358
   6480.00000000           -139           -851           -856            -16
   6484.00000000            396             67           -155           -271
   6488.00000000            201           -150           -786            351
   6492.00000000            -34           -863           -743            116
   6496.00000000            392           -256           -945           -688
   6500.00000000           -574            626           -104           -439
   6504.00000000           -255           -121           -157            984
   6508.00000000           -304           -150            -50           -682
   6512.00000000           -140           -703            -45           -463
   6516.00000000           -168            470           -416           -419
   6520.00000000           -265           -187            171            112
   6524.00000000           -469           -129            627             56
   6528.00000000           -402           -535           -602           -413
   6532.00000000            414            231           -465           -371
   6536.00000000            231            860            229           -460
   6540.00000000            287             36            315            814
   6544.00000000           -261            275           -304           -379
   6548.00000000            286            167           -379            296
   6552.00000000            -19            229            528           -348
   6556.00000000           -399            173            124            744
   6560.00000000           -451            132             53            324
   6564.00000000            -14           -347           -128           -477
   6568.00000000            694             69             48            791
   6572.00000000            490           -429            735            179
   6576.00000000           -132            573            326           1060
   6580.00000000            482           -163           -482              1
   6584.00000000            825            467            604            190
   6588.00000000             72           -575            373            731
   6592.00000000           1059             79            205            502
   6596.00000000           -311           -105           -392           -963
   6600.00000000            421            266           -107             10
   6604.00000000            136            466            315            624
   6608.00000000            325            346            498           -471
   6612.00000000            -74           -279            283            591
   6616.00000000           -374           -138            518            -88
   6620.00000000           -318           -192            288            -99
   6624.00000000           -200             78             28            -82
   6628.00000000            889           -135           -265           -152
   6632.00000000             37            147           -348            315
   6636.00000000           -310            238            -64            481
   6640.00000000           -206             10            641            125
   6644.00000000            477            492           -356            417
   6648.00000000           -362            -31           -432            551
   6652.00000000            329            344           -415            277
   6656.00000000            403           -355           -321            277
   6660.00000000           -313            173            -33            275
   6664.00000000           -466            295           -351           -410
   6668.00000000            190           -693           -165           -797
   6672.00000000            -99            113            404            -68
   6676.00000000            139            430             26           -586
   6680.00000000            236            156           -492            427
   6684.00000000            195            217           -479           -116
   6688.00000000           -303            158           -307           -366
   6692.00000000            183            -34             40           -627
   6696.00000000            495           -159            528            550
   6700.00000000            304             72             74           -486
   6704.00000000           -131            264             16            243
   6708.00000000            112            157            -43            267
   6712.00000000            610            574            215           -136
   6716.00000000            312           -394           -175            398
   6720.00000000           -153            218           -167            602
   6724.00000000            418           -153            263            283
   6728.00000000            378             -5            268             19
   6732.00000000            525            -43            789            429
   6736.00000000            457            221            600            -37
   6740.00000000            352            561            291            113
   6744.00000000            158            227           -309            656
   6748.00000000            249           -167            185            696
   6752.00000000             91             63           -257            291
   6756.00000000           -478             58            550            101
   6760.00000000            111            325            537            359
   6764.00000000             86            247           -265             40
   6768.00000000            216             90            196            452
   6772.00000000            363           -118           -354            -96
   6776.00000000            -91           -119            308            233
   6780.00000000            493            128           -188           -208
   6784.00000000           -442             -7             65              7
   6788.00000000            346             18           -686            332
   6792.00000000           -346           -263           -278            123
   6796.00000000            735            432            391            103
   6800.00000000            353             72            511           -446
   6804.00000000             85           -236           -231           -507
   6808.00000000            -20            -13             21           -102
   6812.00000000            -13           -131           -209            287
   6816.00000000           -202             57           -219             81
   6820.00000000           -377           -156           -117           -120
   6824.00000000            154           -266           -158           -220
   6828.00000000           -147            -69            -40             -4
   6832.00000000            131            174           -375            255
   6836.00000000            355            265           -621           -218
   6840.00000000            410            -34            397            357
   6844.00000000            227             -1            512           -481
   6848.00000000              3            235            271             87
   6852.00000000           -308            259            183           -121
   6856.00000000            209            154            201            -39
   6860.00000000            358           -135           -419             61
   6864.00000000            244            302           -162            268
   6868.00000000            -79           -162             68             33
   6872.00000000            -64            462           -503            211
   6876.00000000            -75           -348            180           -178
   6880.00000000           -279            387            194           -734
   6884.00000000            365           -234           -256           -405
   6888.00000000            297            -33            133            132
   6892.00000000            -88            259           -331            323
   6896.00000000           -252            -57           -424           -451
   6900.00000000           -330              6           -268            -46
   6904.00000000           -162            216           -287            -48
   6908.00000000           -339           -183           -404            175
   6912.00000000            153           -165            435            285
   6916.00000000              9             87            234           -728
   6920.00000000            -99            262            101            113
   6924.00000000            -65            228            328           -570
   6928.00000000            -13           -292           -273           -322
   6932.00000000           -606           -112           -208            -76
   6936.00000000            144            422             54            -99
   6940.00000000             19            174           -609           -106
   6944.00000000             99           -150           -413           -465
   6948.00000000            -16           -221           -155            137
   6952.00000000            370            -81           -148            431
   6956.00000000              2           -123           -186            -21
   6960.00000000            -32            107            609            367
   6964.00000000            -32           -445            -31              8
   6968.00000000           -197            -48           -218           -310
   6972.00000000            -93            655            -47            375
   6976.00000000            256           -155            369           -125
   6980.00000000            -35            212           -220            191
   6984.00000000            329            -94           -208             98
   6988.00000000             30            137           -138            142
   6992.00000000             16            -84            128            213
   6996.00000000           -286           -172            -86            510
   7000.00000000            335            120            511            214
   7004.00000000            -26              4           -200             25
   7008.00000000            -92            351            -16            340
   7012.00000000            140            197             21             29
   7016.00000000           -141            239           -123             30
   7020.00000000            -16            263            111            151
   7024.00000000           -249            104            121            131
   7028.00000000            -86             54            159            -72
   7032.00000000             17             56            387           -255
   7036.00000000            -50            -48            177            420
   7040.00000000           -184            181           -125            188
   7044.00000000            -76            409            -22             71
   7048.00000000           -228             90            154            427
   7052.00000000            -56             65            -94             52
   7056.00000000             23           -271            -73            121
   7060.00000000            -59             15             92           -445
   7064.00000000             -8           -198            395            113
   7068.00000000            105            -58           -370            297
   7072.00000000            257           -109            -39           -414
   7076.00000000            265             81            -69           -127
   7080.00000000             19             71            203            131
   7084.00000000           -179            133            125            -72
   7088.00000000           -169            -22           -143           -367
   7092.00000000           -359           -235           -138           -162
   7096.00000000            -47            113           -224             32
   7100.00000000            -70            149            193             97
   7104.00000000            116            125            120           -270
   7108.00000000           -203            -17           -435           -331
   7112.00000000            205            178            132            -75
   7116.00000000              0            262            147             71
   7120.00000000            -95           -121           -222            -71
   7124.00000000           -320           -458            113             92
   7128.00000000            295            -52           -169            255
   7132.00000000           -524            183            -23            467
   7136.00000000            373             41             88           -293
   7140.00000000             42           -179           -250             81
   7144.00000000            278            -64            -56            211
   7148.00000000           -136             67            -98           -211
   7152.00000000            -42            125            208            172
   7156.00000000             36           -322            100            -84
   7160.00000000           -204            110            116             -3
   7164.00000000             97           -130            191           -311
   7168.00000000            -29            -72             73             -1
   7172.00000000           -179           -294           -156            114
   7176.00000000            252            -22            171            -48
   7180.00000000            -33             11            -91            -74
   7184.00000000            -15              4            -59           -347
   7188.00000000             89            175            197            -60
   7192.00000000            157            260            168            246
   7196.00000000            -60            -57           -197            337
   7200.00000000            188            102             40             10
   7204.00000000             61            179             18            149
   7208.00000000             30            -91             17            171
   7212.00000000            137             19           -349            148
   7216.00000000            536           -121           -136           -121
   7220.00000000            127             51           -295           -135
   7224.00000000             -0           -228           -201           -417
   7228.00000000             28            334            121           -174
   7232.00000000            -45            317            210           -176
   7236.00000000            356             32            -31           -131
   7240.00000000            131            126            253           -195
   7244.00000000            -88            286             -9            401
   7248.00000000             76            360            -13             12
   7252.00000000             71            234            222           -126
   7256.00000000           -233            124            -78            219
   7260.00000000             19           -307           -180           -100
   7264.00000000            -85            -83            157            148
   7268.00000000           -320            168            -39           -136
   7272.00000000            -52            190            -31            182
   7276.00000000            217             -9            170            128
   7280.00000000            181           -182            -19           -386
   7284.00000000             87            -15            173             41
   7288.00000000             88           -202           -202             99
   7292.00000000              0             59            175             86
   7296.00000000             83             76             30           -122
   7300.00000000           -101             15             45           -338
   7304.00000000             20             62            129            172
   7308.00000000             53             66            367            -99
   7312.00000000           -310             -8            124           -129
   7316.00000000             17             80            226            134
   7320.00000000           -396           -125             13            171
   7324.00000000           -187             67            -42            440
   7328.00000000            -29             17           -124            166
   7332.00000000             49            -83            -83           -179
   7336.00000000            -46             46            -47            122
   7340.00000000           -189            312            155             77
   7344.00000000             -4            223             -1             77
   7348.00000000            -90             69           -253            109
   7352.00000000             17              1            -24           -176
   7356.00000000             -7            -16            -21              5
   7360.00000000             86            -31             -2            -67
   7364.00000000            -72            -20           -174           -303
   7368.00000000           -156             12            249             -6
   7372.00000000            -45           -158           -223           -110
   7376.00000000            178            -33            138            -26
   7380.00000000           -196             97            -71             53
   7384.00000000            -67            -15           -102             14
   7388.00000000           -163             29             52            112
   7392.00000000            259            -95             35            235
   7396.00000000             80             67            170            -66
   7400.00000000           -104           -135              2           -226
   7404.00000000            -71             11             42           -250
   7408.00000000             70            -19             82             54
   7412.00000000            -46             97           -104            -56
   7416.00000000              9            286             54           -103
   7420.00000000           -172            -15            -16             12
   7424.00000000             31             73            -55            126
   7428.00000000             48            205            112             91
   7432.00000000             60             18            163            205
   7436.00000000            135            318            150             48
   7440.00000000           -189              7             81             80
   7444.00000000             75            177             46            -44
   7448.00000000           -120            170            -49             38
   7452.00000000             50             82            -31            179
   7456.00000000           -116            -45            147           -187
   7460.00000000            114            366            -81            168
   7464.00000000            166            200            129           -101
   7468.00000000           -170            -34             80            245
   7472.00000000             -6            190            323           -169
   7476.00000000            133            -79            208            -13
   7480.00000000             42              8             22           -189
   7484.00000000             53             -2           -205            224
   7488.00000000           -142            -20           -214             43
   7492.00000000            -45             91             30            -76
   7496.00000000            -29            121           -169             31
   7500.00000000             61             33            110            -64
   7504.00000000           -235            133            155           -101
   7508.00000000            -40            198            140             -0
   7512.00000000             37            129             21           -189
   7516.00000000            227           -115           -122             42
   7520.00000000           -164            115            116            -85
   7524.00000000             55            175           -229           -122
   7528.00000000             24           -107            -46             69
   7532.00000000            284            -81           -244            -83
   7536.00000000            -98           -188           -202           -119
   7540.00000000            -57            -20           -127            -78
   7544.00000000            -11            -96            204            -16
   7548.00000000            127            -82           -176            -74
   7552.00000000            -85           -217             -7              2
   7556.00000000            217             10           -124            120
   7560.00000000           -133             84             72            -25
   7564.00000000             80             20            131             64
   7568.00000000           -258            -37              3            101
   7572.00000000             44           -176            160            101
   7576.00000000             -4             67           -126            268
   7580.00000000            158           -159           -127             41
   7584.00000000            -19            -67            103             95
   7588.00000000             95            -83            129             -8
   7592.00000000            199             47            146             43
   7596.00000000             98             50           -107            171
   7600.00000000            138            203           -131            174
   7604.00000000            -23            -45             96            -92
   7608.00000000            -94              1             18            231
   7612.00000000            -28            132            201            -55
   7616.00000000            -62            -66             88           -214
   7620.00000000            -85             96            161            -42
   7624.00000000           -159            240           -186           -190
   7628.00000000             57            -56             -8           -102
   7632.00000000             73             51            132            198
   7636.00000000             26            -54             86             -5
   7640.00000000           -126           -105           -140             23
   7644.00000000            132             39            -71             -2
   7648.00000000             15             19             -1             17
   7652.00000000             16            -44           -137           -102
   7656.00000000            -93            -54            -23            -55
   7660.00000000           -143           -109             -1             13
   7664.00000000            131            -16            -42             -3
   7668.00000000           -166            -62             -7            -84
   7672.00000000             39             20           -121            -96
   7676.00000000              6           -216             -9             35
   7680.00000000            -78              3            104            -49
   7684.00000000            122             50           -149             -9
   7688.00000000            -12             38           -127             12
   7692.00000000            -27           -111            -53            -38
   7696.00000000           -214            116             -4            -24
   7700.00000000            232            -29             57           -164
   7704.00000000             27            -49            173           -124
   7708.00000000            100             82            -57            -14
   7712.00000000             87            179             12             29
   7716.00000000            142            131             63            126
   7720.00000000             40              9           -116            -26
   7724.00000000            -74             91             12             -1
   7728.00000000             20             29            120           -101
   7732.00000000             75            -11            -46             75
   7736.00000000            -41            -75            -20            148
   7740.00000000             25              8             34            -23
   7744.00000000            -12           -139            100            107
   7748.00000000           -103             95            119            -77
   7752.00000000             76             12             40            139
   7756.00000000             49            -18             52            131
   7760.00000000             46             24            -40           -126
   7764.00000000            -10             20             20             36
   7768.00000000            -95             28             71            -10
   7772.00000000            -20              7            -38             42
   7776.00000000            -25           -214           -161            -27
   7780.00000000           -126             98            -35             20
   7784.00000000            -39            -70             57             34
   7788.00000000            189             64            -84           -210
   7792.00000000             57            -31            -33            -68
   7796.00000000             86             47             76             77
   7800.00000000            -61             27            186            -68
   7804.00000000            -48           -154           -105            -98
   7808.00000000             80             11             12            -47
   7812.00000000           -121            143            -86             -8
   7816.00000000            112             46            -54             18
   7820.00000000           -158             65             16              3
   7824.00000000            -78            -23            -92            -34
   7828.00000000              7            -18           -108             36
   7832.00000000            -73             82           -121             -7
   7836.00000000             59           -126             78            -36
   7840.00000000             54             40            -49             -2
   7844.00000000             59           -115            -99             70
   7848.00000000            -62             -5           -127            147
   7852.00000000             77           -108             45             14
   7856.00000000           -117            -56            -14             64
   7860.00000000            -45             -9             10            -45
   7864.00000000           -117             42             93             49
   7868.00000000             81            -53             18             -2
   7872.00000000             36             77             66           -160
   7876.00000000             89            -84             67             76
   7880.00000000              0            -29             33             41
   7884.00000000            122             92             55            -40
   7888.00000000             15           -146             87             56
   7892.00000000             33             25           -101            -19
   7896.00000000            -33             31            -54            137
   7900.00000000             52             36             83            221
   7904.00000000             17             43            129             18
   7908.00000000             29            103            131             19
   7912.00000000            -36            -21            -44            -22
   7916.00000000             59             97            -49            -31
   7920.00000000             41              4            -42            177
   7924.00000000            -39            148            -93            -73
   7928.00000000            -25            103            -24            -18
   7932.00000000              6           -116             11             91
   7936.00000000            -75            -52             63             21
   7940.00000000            -50             43             58            -46
   7944.00000000             71            -57            -40             98
   7948.00000000            -27            -39            -37           -101
   7952.00000000             34             44             -4             49
   7956.00000000            -54            -88            -96             -2
   7960.00000000            -26             78            -34            -22
   7964.00000000            -59            -19            -46            -71
   7968.00000000            -55            -37            -11           -105
   7972.00000000            -35           -126            133            -57
   7976.00000000             17            -81            -52             32
   7980.00000000           -149             88            106             23
   7984.00000000            -57             35             95             20
   7988.00000000             -3            -74             63            -47
   7992.00000000             -8            -56             -5            -14
   7996.00000000            -68            -34            -75            -41
   8000.00000000              9            113             90             11
   8004.00000000            134             54             63            -90
   8008.00000000             60             10            -34             34
   8012.00000000            110             52            119            107
   8016.00000000            -70             -7             51             93
   8020.00000000            -33            -21             41            -34
   8024.00000000              4            -77            -40           -101
   8028.00000000            -17            -67             11             57
   8032.00000000             29            -72             96             28
   8036.00000000             70             15             42            -45
   8040.00000000             57            134            -17            -41
   8044.00000000             48             -8             52            -87
   8048.00000000             64            -42            -29             80
   8052.00000000            -99            -76            -26             84
   8056.00000000             81             24            -95             41
   8060.00000000             -4            -70             21            124
   8064.00000000             53             10            -47            -48
   8068.00000000             29            -68            112             -3
   8072.00000000             16              4              4             30
   8076.00000000             31              3            -40             14
   8080.00000000            -56            -16            -11            -28
   8084.00000000             20            118             90             25
   8088.00000000             81              2            -35              5
   8092.00000000            -32             21            -22            -58
   8096.00000000            -49            -24            110             23
   8100.00000000           -112             12            -30             32
   8104.00000000            -15              3           -114            -48
   8108.00000000            -41             76            -30            -14
   8112.00000000             73             80            -72             30
   8116.00000000            -94            -10             29             23
   8120.00000000           -113             26            -11            -17
   8124.00000000            -45            -99             45            -62
   8128.00000000             40            -55            -64            -51
   8132.00000000            -23              7             35            -19
   8136.00000000            -90             69            -22            -10
   8140.00000000           -159              5            -37            -72
   8144.00000000             26             21            -34            -70
   8148.00000000              5            -16            -94             12
   8152.00000000             -2             -7            -31            121
   8156.00000000             22             -6             53            -19
   8160.00000000             50             49             72             16
   8164.00000000             52             13             -9             94
   8168.00000000             -3             76            -33             -8
   8172.00000000             -1            -16             92            -15
   8176.00000000            -16            -70             35             76
   8180.00000000             44            114             64              9
   8184.00000000             19             32             87              2
   8188.00000000             39            -27              2              8
##PAGE=N=2
##DATA TABLE= (X++(I..I)), XYDATA
      0.00000000      663301293      578568960      495633088      563030846
      4.00000000      638985354      387688458     -273895053    -1108180811
      8.00000000    -1596432706    -1318303615     -260410704     1062946744
     12.00000000     1929985929     1827968237      805844483     -567380827
     16.00000000    -1520756962    -1612449960     -939322615      -15128498
     20.00000000      604044757      697789693      474764820      270865566
     24.00000000      294328308      423100824      347983461     -127284634
     28.00000000     -833796468    -1325989545    -1174954186     -311240028
     32.00000000      859202780     1671867276     1634618259      745884629
     36.00000000     -487027476    -1366670198    -1452746583     -815713832
     40.00000000       74267853      675454609      749269696      451288664
     44.00000000      136798947       56703919      167685260      208097186
     48.00000000      -43963662     -538701714     -950755324     -907961791
     52.00000000     -292261510      614546339     1289552684     1300960187
     56.00000000      603478958     -402790497    -1136752779    -1204646420
     60.00000000     -647034021      130334956      646698068      679879425
     64.00000000      361018820       26962321      -70999100       57874165
     68.00000000      175784039       48054063     -330445267     -706385462
     72.00000000     -746277376     -300630341      436152652     1033112267
     76.00000000     1090072205      533905934     -327466036     -981212284
     80.00000000    -1063764684     -576343925      135908421      631392870
     84.00000000      670922299      351393513      -16607623     -168766609
     88.00000000      -67981602       94241313       80826937     -171575031
     92.00000000     -492803321     -588558153     -285584192      303697520
     96.00000000      824350355      919173445      481818719     -251754360
    100.00000000     -845693001     -952191699     -535856308      109444466
    104.00000000      591143021      655226749      359223575      -27306764
    108.00000000     -226925702     -164563095       18304060       88978326
    112.00000000      -60818279     -323759382     -452332470     -261445580
    116.00000000      198630175      652723586      780465662      446281130
    120.00000000     -176906509     -719213820     -852091245     -509019244
    124.00000000       76319519      540220524      635708274      366063804
    128.00000000      -22862704     -264423147     -238821084      -54061895
    132.00000000       78553232       17552223     -188125070     -336439470
    136.00000000     -234883185      112565177      502477526      650108058
    140.00000000      408601784     -109139415     -592254473     -743593610
    144.00000000     -472658605       45273826      486032710      600680846
    148.00000000      369160518      -11561256     -277128170     -290749263
    152.00000000     -109784541       66282871       75855507      -76908233
    156.00000000     -233886595     -210286250       38170569      360807760
    160.00000000      522575402      365347069      -50212835     -474469174
    164.00000000     -637704086     -431798219       14649719      425728758
    168.00000000      556839239      364750685        6422753     -276183308
    172.00000000     -319033340     -153242805       50550593      120946121
    176.00000000       19742310     -141005628     -182551491      -26259569
    180.00000000      230101088      398518682      317460431        -178436
    184.00000000     -361453617     -532198002     -390570004      -18824124
    188.00000000      355803044      506370241      358249117       27981018
    192.00000000     -261897932     -337467930     -190846473       29234497
    196.00000000      152210565       99359400      -54130750     -146477696
    200.00000000      -74909631      124465633      288249336      269227215
    204.00000000       42499673     -263146769     -440854508     -357377872
    208.00000000      -52443785      291273444      454566593      348114185
    212.00000000       52975627     -237790961     -341988166     -224164674
    216.00000000        1679203      161931920      154632373       23999345
    220.00000000      -99166362      -94015587       40944985      193841568
    224.00000000      217791587       65172375     -181952730     -354949408
    228.00000000     -315627768      -71906076      232325066      406961221
    232.00000000      337056125       72584627     -214251065     -348943657
    236.00000000     -263676410      -40217521      160108670      204998262
    240.00000000      101171413      -40935035      -99412655      -28476694
    244.00000000       98072440      159351852       78659734     -108805502
    248.00000000     -266853029     -268298095      -85653618      179372537
    252.00000000      354769918      319321628       93412939     -184133172
    256.00000000     -341957914     -287569507      -74380075      143841240
    260.00000000      233448246      159746940        7724046      -98090905
    264.00000000      -84048838       17738169      100292402       77618843
    268.00000000      -46591265     -181593926     -210241470      -86435518
    272.00000000      129211207      291139274      285850369      101036626
    276.00000000     -149331092     -311770272     -283128597      -93754870
    280.00000000      128275866      242544752      193390184       39931609
    284.00000000      -97957412     -129215899      -50937791       48895304
    288.00000000       83056530       14462088      -96246891     -155970795
    292.00000000      -87078124       69323686      215212295      235659038
    296.00000000      106041659     -106405224     -260336074     -259110100
    300.00000000     -100788568      106622844      235568354      210246345
    304.00000000       63746116      -94001299     -163110373     -112380727
    308.00000000        2880217       81406674       69798830      -14061420
    312.00000000      -90386220      -83683468       11342625      128778399
    316.00000000      172902995       93423284      -64949346     -200002650
    320.00000000     -213115363      -92358969       89093034      214222371
    324.00000000      203014040       72162229      -88903685     -178109984
    328.00000000     -143910750      -27673992       83224422      111880678
    332.00000000       51281027      -39863879      -82490628      -41122734
    336.00000000       51301788      112309891       83962210      -21189481
    340.00000000     -132287391     -164367915      -84520043       60682050
    344.00000000      176547279      183613367       76971994      -72867573
    348.00000000     -171528693     -160108919      -52493808       73542682
    352.00000000      134026648       96823040        2779961      -74041115
    356.00000000      -78299129      -12974188       57073740       72892819
    360.00000000       16942981      -69171698     -116607621      -77729375
    364.00000000       26481102      126774265      149715863       79287413
    368.00000000      -48623932     -145089231     -151992792      -64314375
    372.00000000       57730582      134195088      116734549       30923045
    376.00000000      -58999096      -94373545      -52623942       20042405
    380.00000000       62004881       43132790      -21036925      -76223603
    384.00000000      -71180322       -2685622       82921362      118521265
    388.00000000       74666275      -22852243     -115735025     -136971278
    392.00000000      -70855289       35653777      121952307      126386713
    396.00000000       52061580      -46416700      -98708525      -80634122
    400.00000000      -12230277       50163199       59451688       20913049
    404.00000000      -37284654      -58819140      -25575983       38100250
    408.00000000       80339025       67828095       -1175237      -80731014
    412.00000000     -113485746      -70719563       18984249       99334514
    416.00000000      117275245       61082175      -27585461      -91644854
    420.00000000      -93596218      -35143304       35489062       68217439
    424.00000000       49210917       -4543130      -42660069      -40693978
    428.00000000        1585371       44853714       54220379       14141436
    432.00000000      -46840448      -82652588      -64097155        1991903
    436.00000000       74228159      100030140       60373614      -16615787
    440.00000000      -79885200      -92697655      -45754631       22281775
    444.00000000       70317796       64532726       19106435      -32161277
    448.00000000      -48410370      -25748012       18345893       41128990
    452.00000000       28883255      -15330339      -53312209      -52428160
    456.00000000      -10147395       45450808       76294923       53206921
    460.00000000       -4301996      -62440895      -80584781      -49606828
    464.00000000       12203126       62180176       68421238       30802200
    468.00000000      -21615507      -53172913      -41673425       -5083571
    472.00000000       32234922       36914430       11658318      -25236161
    476.00000000      -40478423      -18886925       19896539       50112908
    480.00000000       45022342        4611427      -43347053      -65435663
    484.00000000      -45940642        4948127       51452299       64266036
    488.00000000       35021257      -13058519      -49268379      -51463831
    492.00000000      -19075588       21512501       39624323       26529110
    496.00000000       -3647208      -27583660      -25237781         764293
    500.00000000       26891235       32825911       12066240      -23173897
    504.00000000      -45667120      -37874802       -3094607       35855303
    508.00000000       51604927       36119499       -5852986      -40606724
    512.00000000      -48522634      -25312305       10480064       37550304
    516.00000000       35815680        9484472      -15578583      -25552613
    520.00000000      -13295568        9906543       23078069       15574158
    524.00000000       -6661075      -27233033      -28488255       -6043022
    528.00000000       23603722       40106454       31016562        1779178
    532.00000000      -29505183      -42651422      -27457717        4342652
    536.00000000       30378442       36132092       19129984       -9794820
    540.00000000      -25621418      -21839758       -3747200       14898602
    544.00000000       18437378        4455329      -12152628      -19357761
    548.00000000       -8353474       10550684       26028796       24430481
    552.00000000        5033369      -20012451      -33354948      -24908237
    556.00000000       -1080047       25826344       31840502       18779277
    560.00000000       -2788239      -23765604      -24513213      -12448933
    564.00000000        6946064       15957237       14035919       -1357552
    568.00000000      -11287550      -12196022        1398424       13459869
    572.00000000       16895669        5810660      -12200414      -24215625
    576.00000000      -20052358       -2074139       18975265       26686218
    580.00000000       19506705         142780      -18797953      -23731502
    584.00000000      -12963412        4159931       15757138       13849531
    588.00000000        5597381       -5637519      -11390627       -5663854
    592.00000000        6233693       11141245        7224062       -4456577
    596.00000000      -14457221      -15037405       -2959229       12529721
    600.00000000       20610332       15978094        3309401      -13801857
    604.00000000      -19966114      -13378483        -945374       11512623
    608.00000000       15321730        8614933       -3518850       -9880038
    612.00000000       -8171787        -743544        6400633        8351374
    616.00000000         884161       -6898170      -11313408       -6021050
    620.00000000        5003641       13804184       15280282        4015384
    624.00000000       -7993166      -14744135      -12101282       -4438122
    628.00000000        8337527       14106551       11196367        1830511
    632.00000000       -6205652      -10279400       -5461401        2859458
    636.00000000        5500057        1975205       -2529812       -6298666
    640.00000000       -5309279        1510268        9002450       10376000
    644.00000000        5399268       -4827362      -12072244      -11984884
    648.00000000       -4394204        5963644       10802789       10383684
    652.00000000        4127384       -3798402       -7078419       -6617379
    656.00000000         998272        2184495        3454004        1244595
    660.00000000       -3918533       -3099352        -948709        5974479
    664.00000000        5982210        3981884       -3255793       -9334450
    668.00000000       -7100861       -4014343        3594788       10120837
    672.00000000       10117911        2828373       -3751059       -8903109
    676.00000000       -8815498       -3530868        1702170        4471892
    680.00000000        5376406         253333       -3315753       -2481660
    684.00000000        2412520        2057065        2567958       -2058657
    688.00000000       -5477877       -6730272       -4302643        1799817
    692.00000000        7143648        8488453        3365483       -1960917
    696.00000000       -6802963       -7739144       -1709175        1865767
    700.00000000        5034432        6379598        3242074         -66618
    704.00000000       -2811414        -294576        1706832        2067390
    708.00000000        -279780       -3020063       -3571586       -2558359
    712.00000000         201150        6376556        6801498        4041855
    716.00000000         118449       -4530603       -7359986       -3223056
    720.00000000         564533        4796461        4776461        3381223
    724.00000000        -963678       -2941536       -1420957        1369122
    728.00000000        1227688         830333        -292378       -1729568
    732.00000000        -957117         195827        2450480        4881717
    736.00000000        3661893        -153539       -3966991       -7123180
    740.00000000       -3630262          11088        3866255        5735938
    744.00000000        2454568         343899       -3690381       -3012863
    748.00000000       -3130196        -532396        2449170         -29309
    752.00000000        -687758       -2568056         450994        3179298
    756.00000000        2825321        3037132         821084       -2117700
    760.00000000       -6555736       -4307408          28093        4034183
    764.00000000        5958446        3554889        1151835       -4083171
    768.00000000       -4850427       -2621732         999941         496551
    772.00000000       -1140001       -2184092       -2614416        -761334
    776.00000000        4127803        5511735        2595193        1011780
    780.00000000       -5509841       -7212745       -5739710           3619
    784.00000000        3070229        3608838        2584184        -633718
    788.00000000        -223698        1506954        1867802        1449338
    792.00000000        -312247       -3961350       -4342738       -2852783
    796.00000000         713393        3499017        4760726        2771792
    800.00000000         573414       -2529320        -412067         147456
    804.00000000        -145193          36452       -1656752        -278664
    808.00000000        -107075         688182       -1184690        -553500
    812.00000000         720976        1025161        1156781         756105
    816.00000000        1109253        -768646        1183438        1845762
    820.00000000         -79508        -172722        -690144          50117
    824.00000000          93316        -358267         201093         510751
    828.00000000       -1487502         659553        -140532        1072597
    832.00000000        -183367         977430         -88796        -127503
    836.00000000        1397572         261094        -361436        -856741
    840.00000000       -1084319        -685550        -156398         633375
    844.00000000        1507958         982220        -454432        -818697
    848.00000000        -380286         737707         171480         383438
    852.00000000         239033         595080       -1172007         128464
    856.00000000         451980         645903        -150337        -220083
    860.00000000       -1433899        -383834        -696848         183745
    864.00000000        -355772         160734         110573        -937548
    868.00000000        -450911        -264808        -393640        -170855
    872.00000000        -275616         831031         403656       -1052634
    876.00000000         110124         228647        1105905          -3052
    880.00000000        -142329        -179576       -1175759        -343795
    884.00000000         647491        -936130        1084617        1167084
    888.00000000        -917119        -489136       -1219550       -1474266
    892.00000000         298177        -753990         104746         281672
    896.00000000        -260569        -280005        -131447         696758
    900.00000000         160768        -332020       -1161204        -408449
    904.00000000        -824396        -840718        1951188        1642413
    908.00000000        2191025          70714       -1011326       -1073248
    912.00000000        -676249       -1797287         619345         599342
    916.00000000        1120711         165928          43174        -107551
    920.00000000         377692        -406500        -535719        -919326
    924.00000000         157026        -798468         457450         988427
    928.00000000        1628496        1613567        1221552        -356549
    932.00000000       -1352242        -574715       -1218911        1315348
    936.00000000        1638710        1988307        -390444       -1452499
    940.00000000        -864496        -846297        -370244          40868
    944.00000000        -461629        -156229         380362        -404219
    948.00000000         747466        1223440        -104249        -842137
    952.00000000       -1281434       -1566408        -555291        -706020
    956.00000000         999028        1689320         735255         -12749
    960.00000000         209951        -246256        -907515        1005678
    964.00000000         248983        1293715         204760         300069
    968.00000000        -194120       -1541219        -516758         257322
    972.00000000        -142100        -287026        -730916        -621871
    976.00000000          79953         693101        2493180         900711
    980.00000000          44290        -550676       -1488364        -904666
    984.00000000        -601705         213600         711655        1034327
    988.00000000         951325         341551        -117337        -219418
    992.00000000        -111236         338466        -230853        -533482
    996.00000000        -203200         571670         731271        1455728
   1000.00000000        1173325         543739        -181918       -1760362
   1004.00000000       -2171062       -1758761         849406         222804
   1008.00000000        1205595        1158359        -416094       -1358416
   1012.00000000        -730432       -1336025        -385140         -63741
   1016.00000000         235626         507961          43929         332853
   1020.00000000         816593        1472041          16317         110587
   1024.00000000       -1189475        -714095       -1357203        1227448
   1028.00000000        2542431        1248618         590749         394328
   1032.00000000        -595483       -1186714        -564546        -292103
   1036.00000000         177145        1008574         749795          38196
   1040.00000000        -208944        -104638         461829        1032893
   1044.00000000        -417569        -619232       -1193869       -1064677
   1048.00000000         679598         904687          55252        1206757
   1052.00000000         478910       -1064877       -2060422        -172521
   1056.00000000         582074        1287227         898183         864863
   1060.00000000        1223455        -271172         156533        -678428
   1064.00000000       -1448716        -483842        -631384         187272
   1068.00000000         220145        -735742         430286         915659
   1072.00000000         462651        -357441        -296495       -2379010
   1076.00000000          -5522          10573         578154        2243373
   1080.00000000        1832531          93446          47785       -1125712
   1084.00000000        -411374       -1098617         383888        -809615
   1088.00000000        -377604         759453         570787         215393
   1092.00000000         731068         459587        -253292        -574549
   1096.00000000       -2077823        -279557         369374         666193
   1100.00000000        1756891         809666         515657        -142997
   1104.00000000        -664414       -1120906       -1259965       -1364697
   1108.00000000        -461968        1414500         893369         320639
   1112.00000000        -474852         834303        -121322       -1394421
   1116.00000000       -1689640       -1530033        -654684         428296
   1120.00000000         764907         953301        1133470        -743974
   1124.00000000        -244405       -1386367       -1833489        -292536
   1128.00000000          87670          70416        -351767        -447013
   1132.00000000         388663         849521         -32133        -898243
   1136.00000000        -835469        -859043          13264        -333874
   1140.00000000         359186         531566         623132         765833
   1144.00000000         213888        -278531       -1392096       -1261925
   1148.00000000        -730814        -550530        1230868        1446775
   1152.00000000         141978         330941        -671310       -1375321
   1156.00000000       -1093637        -815041        -341389         509334
   1160.00000000         127561        -345412        1164747        1058603
   1164.00000000         519409        -306923        -934903        -214812
   1168.00000000        -369764         118683         548556        1420733
   1172.00000000         737432         539327        -804228        -835140
   1176.00000000        -412922        -348800        -814839        -242035
   1180.00000000         120492        -947475         398698        1061091
   1184.00000000        -124707         644180         -89941        -796522
   1188.00000000       -1550390        -591571        -522199        1227618
   1192.00000000        1568619         885174          79789        -243311
   1196.00000000        -875957       -1398196        -762106        -308206
   1200.00000000        -260509         341215         355550         194154
   1204.00000000         443926        1770065          38167        -398383
   1208.00000000       -1123670         -50277        -599492        -138065
   1212.00000000         496165        1064448         443547         -14533
   1216.00000000        -578148        -133477       -1055168        -439525
   1220.00000000        -247278         309295         -61237         654952
   1224.00000000         613304         429043         316700         453011
   1228.00000000        -255784        -270592        -920536        -329950
   1232.00000000         243775          89857          -8660         271227
   1236.00000000         -93782          55399        -407810        -345811
   1240.00000000        -335196        -487381        -389691        -683039
   1244.00000000         218287        -104743         138977        -117426
   1248.00000000         125580        -156503         -65302          27462
   1252.00000000         -65392        -389886         592252         200588
   1256.00000000         446033        -491011        -498847       -1099375
   1260.00000000        -639035         635916        -284043         632891
   1264.00000000         165494        -169037         375548         544759
   1268.00000000        -103162         121511           7898         -48803
   1272.00000000        -518044         454841         423720         676208
   1276.00000000         683022          62862        -414310        -350722
   1280.00000000       -1043878        -349958        -581395         251970
   1284.00000000        1096225        -270297        1030570         260439
   1288.00000000         171057        -213144           2066        -607723
   1292.00000000        -176160         609999          19287          95885
   1296.00000000        1292690         930031         106910        -134740
   1300.00000000        -484721         -20640        -660566         144323
   1304.00000000        -350623         290867         816645         591171
   1308.00000000         278893         411696        -623547        -772122
   1312.00000000        -671877        -877031       -1294808        -284767
   1316.00000000         376188         237175         795670         521479
   1320.00000000          87811        -477423        -464347        -619226
   1324.00000000        -378445         -36069         351261         340890
   1328.00000000         151362          79029           5087        -530662
   1332.00000000         123043        -314335       -1009986         261831
   1336.00000000         136788         427524         544366         432000
   1340.00000000         540883        -733754        -104507        -838477
   1344.00000000        -358394         -11177        -156064        -139449
   1348.00000000        -282878          48109         322653          18066
   1352.00000000        -448159        -413114        -392386        -475800
   1356.00000000         515293         -95236         397013         468861
   1360.00000000         249125         634424         110869        -246127
   1364.00000000          91278        -827078        -977632        -199392
   1368.00000000        -181248        -416754         277519         478253
   1372.00000000         290055          52221        -240199        -185897
   1376.00000000         -25108        -433575        -439682         350011
   1380.00000000         -59201         398520         426655         -31090
   1384.00000000         -63741        -261439         120246         166125
   1388.00000000         365685        -385074        -287245        -229629
   1392.00000000        -338163         106770          43493        -727932
   1396.00000000          16413          49387        -164935        -932035
   1400.00000000        -144776         441292        -260507         679859
   1404.00000000         -44584         425694        -136222         140607
   1408.00000000         227403        -400069         235403         637161
   1412.00000000          28678         424371         316271         186066
   1416.00000000        -220237         -28915           8096        -489461
   1420.00000000         250511        -333443         -55675        -119887
   1424.00000000         405443         144744         -27340        -218422
   1428.00000000         252821         234536        -393099        -101624
   1432.00000000        -596666        -253689         508382        -487639
   1436.00000000          14566         494073        -791815        -562352
   1440.00000000           6971         384503         190071         507408
   1444.00000000         203795        -412388        -126748        -273434
   1448.00000000         358830         -14864        -281911         534441
   1452.00000000        -270394        -392443         -99127         532557
   1456.00000000         261157        -364441          25124         361901
   1460.00000000         191528         141309        -546457        -452605
   1464.00000000        -220046          21283         282313         -78643
   1468.00000000         229246         511359        -666883         308530
   1472.00000000        -209222          33803        -512663        -309434
   1476.00000000        -513022         -37383        -171048        -397279
   1480.00000000         -99490         498724        -533187         682968
   1484.00000000         -80712        -110065        -193012         421315
   1488.00000000          83156        -128975         -23820         138264
   1492.00000000         241633         333471         623480         485387
   1496.00000000        -211383        -854253         363440         663322
   1500.00000000        -117975        -155663        -178999          14657
   1504.00000000         171687          52710         449179         -56263
   1508.00000000         142829         625040         -56056         141798
   1512.00000000         213316        -182256        -208397          22806
   1516.00000000         -97506         127947        -306293         -65537
   1520.00000000        -399515        -277141        -133190         277004
   1524.00000000         207277         192887         271815         125156
   1528.00000000         235904          22088        -473054         510142
   1532.00000000         317759         461468         741081        -825947
   1536.00000000          48506         -82463        -168042          85468
   1540.00000000        -110716         127960          22500         580625
   1544.00000000         301938         399217         -22769        -195078
   1548.00000000         318514        -221705         -49152        -505186
   1552.00000000        -185398        -285271        -494671         -32530
   1556.00000000         167148        -324814        -371494        -264370
   1560.00000000         169823          47829        -528443        -391622
   1564.00000000          59113         134654        -329850         219629
   1568.00000000          21575        -305970         457076         888508
   1572.00000000        -105737         757238         479602           2459
   1576.00000000        -186914         181295        -444629        -304244
   1580.00000000        -527622        -236884        -268221        -195256
   1584.00000000         105461         447018        -198668         139446
   1588.00000000        -445743         196924         197233          42847
   1592.00000000         287150          68901         336822          80511
   1596.00000000          -5778        -272549         271603         382470
   1600.00000000         -54393        -447557         538981        -220763
   1604.00000000          30559           1087        -126470          -5922
   1608.00000000          39670         261026         -95725        -106777
   1612.00000000         299483        -377570         -32322        -531205
   1616.00000000         178516          31988        -218876        -262329
   1620.00000000         107220        -273016        -189801          22445
   1624.00000000         159683          84562        -507411         508288
   1628.00000000        -193573         -17289        -224342         -91638
   1632.00000000         404216         249716        -578821        -413626
   1636.00000000         306380         136638        -137134         110039
   1640.00000000          84509        -459924          41827        -436828
   1644.00000000        -198852          43970         -48776          42232
   1648.00000000        -152028        -470285        -343381        -161220
   1652.00000000         -14667         565721        -127138        -249659
   1656.00000000          15403        -336336        -301054          24068
   1660.00000000         187501        -304129        -257894          -6098
   1664.00000000          69949          92597        -129983          20115
   1668.00000000         100224         194513        -258876         -33813
   1672.00000000         -71098         237539         163335        -134079
   1676.00000000         188497         290659          92208         198645
   1680.00000000         205178         -69790          94845         351360
   1684.00000000         -80430        -272801         -36750         -49540
   1688.00000000          52960         251831        -263397          51172
   1692.00000000          -3325          76497         343227         161114
   1696.00000000          89775          34878         441687        -442960
   1700.00000000         -73670         250064          23212         174731
   1704.00000000        -201568        -232503         365194         151325
   1708.00000000          97794         153770         304323         122258
   1712.00000000         -57547         194426          53366           5868
   1716.00000000        -289463        -129692          62274         116123
   1720.00000000        -330622        -118972        -159085         488742
   1724.00000000          79812         -69793         157347         239548
   1728.00000000         113808         167543          53670        -610906
   1732.00000000         377335        -284286        -151875        -198931
   1736.00000000         550191         -15226         -43007          12628
   1740.00000000         266130        -177536        -128651         134329
   1744.00000000         224483        -161130         249379         263487
   1748.00000000         438479        -239422        -348904         470847
   1752.00000000          71097        -135493        -123764        -174767
   1756.00000000         146080        -114211         -31880         232325
   1760.00000000        -136820         324617        -168593         -11021
   1764.00000000         101075        -349141        -343327        -178979
   1768.00000000          66956        -195762         106805         455210
   1772.00000000        -327244         291150         383899         129637
   1776.00000000         -10208          57285        -252339        -625321
   1780.00000000        -303168        -321801        -397363          11495
   1784.00000000          66965         296607          96601         120721
   1788.00000000         317864         -32197          67537        -425408
   1792.00000000         451984        -122559         142866        -416497
   1796.00000000         281514         260447          19246         383039
   1800.00000000          44571        -281023        -124951        -177329
   1804.00000000        -130727          53997         -56801         -48440
   1808.00000000        -338845        -106999        -511591          55276
   1812.00000000          85889         100515         173488        -187318
   1816.00000000         357899         -40231        -514986         176796
   1820.00000000         189485         275180        -209180         -67542
   1824.00000000           9626           7382        -160334         -27956
   1828.00000000         211004          15525         -82081         304257
   1832.00000000         154097          43819         237511         170796
   1836.00000000         -95228         -73423         365160         210173
   1840.00000000         539150         191023          32940         304232
   1844.00000000         315799         -26785          81550        -131754
   1848.00000000         165662         -42166         320589          28073
   1852.00000000         318935         352700         -13064          43082
   1856.00000000         413499        -131984          50988         275582
   1860.00000000         610470         174564        -324356        -210548
   1864.00000000          83964        -134604         286443         112231
   1868.00000000         187236         402368        -279170         -65561
   1872.00000000         250523         161322         134862        -236140
   1876.00000000          -4559        -210949         126708         -71087
   1880.00000000          -8258         110639          -9457         -57123
   1884.00000000        -161660         533581         281768        -189022
   1888.00000000          82239         289306         223768           5565
   1892.00000000          37643         -15085         -60312           1926
   1896.00000000         136723          80547        -164636        -145631
   1900.00000000         169839         188284        -149179        -117912
   1904.00000000          54995        -105750         -81193        -324506
   1908.00000000        -370623        -144575        -630874          22909
   1912.00000000         115117         -61044        -113088        -136732
   1916.00000000          10210         251070         425432         217780
   1920.00000000          39938         -41333         -44163         235010
   1924.00000000        -135745          49081        -215139         316175
   1928.00000000        -285430         -86957        -156550         -84039
   1932.00000000        -276752         -27350          67967        -221262
   1936.00000000         -68787        -381250         -61338        -242043
   1940.00000000        -106350         142984        -434650          74113
   1944.00000000         -10750        -367588        -375557          48530
   1948.00000000         -70735        -145304        -319848         217428
   1952.00000000         134667         131880         100607            743
   1956.00000000        -251217        -248249         182902        -591084
   1960.00000000          67217        -275083        -236175          49042
   1964.00000000         -80116         153536         126906        -226150
   1968.00000000         105632        -319592         352559         358897
   1972.00000000          29354         110448          60469          95589
   1976.00000000         518438          -9551         284527         -80638
   1980.00000000          -6006          41424         120715        -183932
   1984.00000000         202942         144572        -304733         -77431
   1988.00000000          74141         -14604        -108162        -245323
   1992.00000000         -83797        -154564         199143        -200429
   1996.00000000         237260        -142503         -94830         124179
   2000.00000000         -48924         115353          73525         137576
   2004.00000000          67872          66507         216571         -18052
   2008.00000000         120824         146491         114858        -151462
   2012.00000000         157535          40976          22336         133524
   2016.00000000         -40630          85324         -46451          70220
   2020.00000000         137230         297757          -6157         159109
   2024.00000000          89025          11002        -142828         270053
   2028.00000000         -34788         -31232         -38066         127072
   2032.00000000         -24996          47925         122462         151897
   2036.00000000           3892         -64153         106548         -61381
   2040.00000000          80253         579178         -19511        -201926
   2044.00000000           7245         119459        -180297        -136244
   2048.00000000           9993         -11848          27050          35226
   2052.00000000        -189839          62358          -8413          10171
   2056.00000000         -10468        -416500          31379        -107370
   2060.00000000         -13346          30919        -168180        -234248
   2064.00000000         133948         -88365        -178518         -47327
   2068.00000000          77716          40941          97601          74700
   2072.00000000        -191971        -422115        -145322         151165
   2076.00000000        -297242         122556          61783          -2354
   2080.00000000         126099         -23274        -422381           1210
   2084.00000000         187513        -217617          14720         -90457
   2088.00000000         -21667        -130492        -160435          19220
   2092.00000000          37572         253738          47763         -32918
   2096.00000000         130043          82587         137038        -368656
   2100.00000000        -273893         105870         -75376          74719
   2104.00000000          97937         138180          34619          70949
   2108.00000000          29679        -148505        -105343        -263290
   2112.00000000          92684        -129301         -90642        -169598
   2116.00000000          36371         133632        -143108        -251031
   2120.00000000        -117804         183802        -258200         -53414
   2124.00000000         215548         -96901          47800          50749
   2128.00000000         -24593         -49913         136495        -169565
   2132.00000000          27645          34572          10467         101546
   2136.00000000         408565          67471          10945         284577
   2140.00000000        -251953         177063           7110          62270
   2144.00000000          95253         301609         320574          43869
   2148.00000000         -19231          -7137         283025         -10540
   2152.00000000         131409         156295         239532         219516
   2156.00000000         308388         298067        -124713          26013
   2160.00000000          47175          16154         193913          32444
   2164.00000000         113241          37903          67025         159244
   2168.00000000         382489          23428         103693         -56049
   2172.00000000         277209         -23019         372440         -93107
   2176.00000000         -46584        -164395         117834          -1784
   2180.00000000        -238213         -56796         190101         124415
   2184.00000000        -246363          33094          30629          46094
   2188.00000000         111220         164662         -90609          91712
   2192.00000000          59438        -191270          74034          -1636
   2196.00000000          11247          -8540          86746          61945
   2200.00000000          71910        -105314          58057         -19431
   2204.00000000         -29033         -33025         -77614        -243050
   2208.00000000         119350          88100         181211         -45101
   2212.00000000         -40677          51252          12017          42516
   2216.00000000        -141068          76069         -66006         -42038
   2220.00000000        -199166         107518         -94207          98331
   2224.00000000          47646        -279557          72118         -17353
   2228.00000000        -125166          40289        -288560         186258
   2232.00000000         -26808         -47871         -93531          82148
   2236.00000000           4554         -38755          81964          32906
   2240.00000000        -215699         105317        -154455          75503
   2244.00000000        -100565          54031         109969         126776
   2248.00000000         -64943          41349         123518         101957
   2252.00000000         -79550          57084          40016         -40880
   2256.00000000          38001        -141750        -130621         -13440
   2260.00000000          -9899         -32936          23590          53698
   2264.00000000          24320         -47957         -61537           6310
   2268.00000000         103090         -46638        -152178         -93973
   2272.00000000          45925          10724         -52133         151295
   2276.00000000        -101901        -103730         -85375        -103354
   2280.00000000          80044          53285         128725         184735
   2284.00000000        -103684         -85754          73330        -143027
   2288.00000000        -147498          29983         161783         197088
   2292.00000000         -79729          37595         -36564          49475
   2296.00000000         -67941         110931        -261221         -83385
   2300.00000000          28963         179161          17192         148503
   2304.00000000         -69344         120166          -4175          50655
   2308.00000000         242470        -116723         128642          52019
   2312.00000000         -31336         169938         195234         366228
   2316.00000000         131221           -673        -190375          63899
   2320.00000000         -85479         -61978          28930         120245
   2324.00000000         276011          53415         -16887         143683
   2328.00000000         -28595         -94684         -30294        -260022
   2332.00000000          15697         -53057          50333         -67795
   2336.00000000          24838         311078        -221145         126234
   2340.00000000        -109464         -39612        -145430         -21423
   2344.00000000          95962         -34351         -14483         -36990
   2348.00000000         -60627        -207570          92154         -23584
   2352.00000000         245043          58776         -74347         -28141
   2356.00000000          58316         -45139        -181621        -178447
   2360.00000000         -88515         -31973         199797        -125895
   2364.00000000        -212929          -8269         -48224         -15102
   2368.00000000          22817        -178818         102807        -110806
   2372.00000000        -113692         158831          52011        -126457
   2376.00000000        -176976         201583        -133928          72468
   2380.00000000        -167682         -57432         139549         -13295
   2384.00000000          33652          71088        -174288         -87992
   2388.00000000         -67927          74280          76131          10054
   2392.00000000         -34443        -114740         -11635          26851
   2396.00000000          20385          21068        -104603        -139224
   2400.00000000          26904        -179294         155446          78387
   2404.00000000         -81705         -18356          34015         132854
   2408.00000000         182512         153671          43370         -71246
   2412.00000000        -212934          21311          73719         -70996
   2416.00000000          93606        -112878          40349          73263
   2420.00000000         -92201        -120936          21923         -48224
   2424.00000000          29728         -66911        -100688         -56544
   2428.00000000         175313        -137061        -124132         -40527
   2432.00000000         130808         153116         106811         -24225
   2436.00000000          81063          -6264        -129636         -54918
   2440.00000000          29098         145361         -31414         -93446
   2444.00000000          50905          52281          63614         -65313
   2448.00000000          -4440         189990         -84718         136648
   2452.00000000          20008          11810         -79218         211219
   2456.00000000          40042          23754         -49298         -24614
   2460.00000000          52936          25439          56548          63379
   2464.00000000          61731          18425         -63287         -44737
   2468.00000000         159413          44141         103718          29138
   2472.00000000          19042         130267          76354          36096
   2476.00000000          -8250         113497          63386          20227
   2480.00000000          33105         -33655          60381         -69506
   2484.00000000         -87716         -41521          25242          28224
   2488.00000000         -21194          48605         -28656          53462
   2492.00000000          82942         -98601         -62947           6535
   2496.00000000         -64284        -105308          25341         -30324
   2500.00000000         -28953         -46140          30709         -50472
   2504.00000000          95313         114780          43479         140177
   2508.00000000         100143         162757        -116080        -178734
   2512.00000000         -69380        -217972         -36893         154060
   2516.00000000          52449         -35904          67388          15538
   2520.00000000         101369          11757        -141252         181006
   2524.00000000        -229175         -76014          55751         -58293
   2528.00000000         -58413         -39228         -40440        -184762
   2532.00000000          37777        -234543          18584          35162
   2536.00000000          58495         113478        -211202          11399
   2540.00000000          69088          36124          88916          94231
   2544.00000000          -5502         -71249         -36959         -47563
   2548.00000000         -77262         -86762         112979         -40152
   2552.00000000         -16197         -71859         -36495          -7132
   2556.00000000         -53400         -37001           8207          -5000
   2560.00000000          63428          12870         -14161         -54398
   2564.00000000        -181096         -35500           4191        -231658
   2568.00000000        -155423        -155991         179840        -109383
   2572.00000000          25263         -98834         112389             -4
   2576.00000000          62610         140309         129519        -115013
   2580.00000000          43829        -121650          20024         191909
   2584.00000000          11446        -110267          78294          33104
   2588.00000000         155310         -30153          -8689          78534
   2592.00000000        -105037         -85105          56154          85737
   2596.00000000         104208         -25507           3306          74473
   2600.00000000        -186786          -4098         -36365         -38322
   2604.00000000         -25693          34426         -77659         -29704
   2608.00000000         -54423          99264          52081          90040
   2612.00000000          67467         108882         -43354          16833
   2616.00000000          89983          47289          28009         134658
   2620.00000000          18507         -36375         195745        -150094
   2624.00000000         149467        -146681         121290         -31730
   2628.00000000           1370          54298          42165          95376
   2632.00000000         -74720          87308           3964         -26895
   2636.00000000         -30977          64491         -29327           6638
   2640.00000000         -47628         -12866         -63085          28727
   2644.00000000           9484         -27218          63802          62524
   2648.00000000          78605         -27874         102183           5909
   2652.00000000         -47198         125215          91506          83097
   2656.00000000         -55580          -9544          18638         -45067
   2660.00000000           5157          46599          29987           5629
   2664.00000000          -8668          -3589          40231         -60728
   2668.00000000          16650           -517         -93358          38769
   2672.00000000          31781        -114113         -31526          45116
   2676.00000000          16943         -28494         -95204        -126752
   2680.00000000         107468         -36230         -50183          77066
   2684.00000000        -137172         -37486          50013         -49762
   2688.00000000         -71182          35295        -163029         125608
   2692.00000000        -112139         -96363         -61287         -96545
   2696.00000000         -41305         -34730        -143123          37959
   2700.00000000         -41403        -162383         -21835         -75563
   2704.00000000          12140         -79859          66426         -44260
   2708.00000000           1768         -21295            193         -10727
   2712.00000000           8381          11071          94683         -24926
   2716.00000000          65399         -63280         -37082          74602
   2720.00000000         -22885         -18747          43107          48204
   2724.00000000         -77948          37768         -47403        -110594
   2728.00000000          64392          34432        -102080          41527
   2732.00000000          39103          68607          86068          17329
   2736.00000000          49484          10703         -90917         109397
   2740.00000000          69219           3845         -54688         -40603
   2744.00000000          60615         -60675          40157          42050
   2748.00000000          45902          85710         111410          73093
   2752.00000000         -66714          34435          28251        -140491
   2756.00000000          18067          82274         -37004         -90828
   2760.00000000         -14329          -1469          55569         108666
   2764.00000000          35731           -694          28499           1055
   2768.00000000         -15008          62889           -367          64167
   2772.00000000          -1537          27827         -10237          92293
   2776.00000000           -642         240053          94507         -34413
   2780.00000000          61184         -27191          55199         -35774
   2784.00000000         -29660         -77924         -40289          54970
   2788.00000000          26232         -51459         -18498         -67072
   2792.00000000           5403           2177          65980          51683
   2796.00000000         -11814         125348         -59377          55226
   2800.00000000          52461         -75318         -89166           -625
   2804.00000000          49659           5512          10352         -38011
   2808.00000000          90053         -73036          37499         136530
   2812.00000000         -61810           6586          -2940         -38287
   2816.00000000         -58247          68180         -19111         -12982
   2820.00000000          27789          62697        -126168         -55804
   2824.00000000         -30778          85110         -98411          28958
   2828.00000000          11016          11063         -13714         -68908
   2832.00000000          31264          29671         102146          44337
   2836.00000000          45340         -57111           7866          -8250
   2840.00000000         -83174         116783         -20186          13718
   2844.00000000        -124027            514         -96489          -4830
   2848.00000000         -11205         -43367         -14396         -10138
   2852.00000000          38246          35855         -42039         -43208
   2856.00000000         -11422         -22862         -23249          83133
   2860.00000000         -84115         -10946          16686          -9969
   2864.00000000         -22395         -72363          51715          31902
   2868.00000000          12974         -48141         -68559         -49543
   2872.00000000         -80007          82837          34051         -77875
   2876.00000000         -29240          -8690         -36439         -33640
   2880.00000000          44791         -13068         -62636          69465
   2884.00000000        -130113         -56762         -51959          82424
   2888.00000000           2381         -67529          99037         -33193
   2892.00000000         -35641         -35303          69081          -5820
   2896.00000000          -1634           8808          43248         -77547
   2900.00000000         -58859         -55643           6087          45671
   2904.00000000          36268         -42126          39875          63167
   2908.00000000         -19713         -11127         128492         -71865
   2912.00000000           7542         -30068          18596          25275
   2916.00000000          31679         -32694         -66752          24279
   2920.00000000           3473          37115         -16470          88415
   2924.00000000        -102380         -13256         -55603          19441
   2928.00000000           4836          55262         -11329          -9242
   2932.00000000          26509         -10116           3952         -41735
   2936.00000000          26997          30656         -30002         -31652
   2940.00000000          54278          -4357         -62332          66377
   2944.00000000          75837           8206         -25830         -27588
   2948.00000000         -80270         -47580          -6504          11621
   2952.00000000          63214         -35881          70963          -7284
   2956.00000000         -32260          25664          18215         -82931
   2960.00000000          45116          17636          64198         -55712
   2964.00000000         -39989         -37408         -10995         -25455
   2968.00000000          65477          10759         -76996           8801
   2972.00000000           5744         -12474         -54905         -73074
   2976.00000000          15422          84760            197         -49720
   2980.00000000           9101          52168          35580          11481
   2984.00000000         -40241          10505          35646          78579
   2988.00000000          24041          26079         -64516         -59551
   2992.00000000          35025         -39998          14408          37735
   2996.00000000          27868          60372          14134          29921
   3000.00000000           2786         -54632          56947         -24547
   3004.00000000         -67796           2001         -34307          24010
   3008.00000000          50387          13223          31987         -30037
   3012.00000000         -15873          57975           6000         -34566
   3016.00000000         -32814         -22991          19592           3016
   3020.00000000         -21078         -32488         -24222          65685
   3024.00000000          -9106        -119838         -54935         -11728
   3028.00000000         -29879          -8449         -50246         -18465
   3032.00000000          37029           1709           3340         -67694
   3036.00000000          22442          21891           8206          28056
   3040.00000000         -40010          66085         -26220         -59982
   3044.00000000          41629           3343          28900         -38432
   3048.00000000          52472         -64669          11285         -20775
   3052.00000000          -6521          14557          48608         -49111
   3056.00000000         -39512         -26123           -385         -74436
   3060.00000000         -28800         -20651         -11262         -23365
   3064.00000000          56998          -1020            754         -17187
   3068.00000000          53055           4657          15345          41940
   3072.00000000          36572         -24565           8298          13900
   3076.00000000          -4048          -2957         -47720          15426
   3080.00000000         -19406          30310          -1568          50991
   3084.00000000          18905           7776          -5040          71668
   3088.00000000           8445         -12349         -21464         -43389
   3092.00000000          -8030         -23598         -25332          15523
   3096.00000000          10256         -85619          22085         -15553
   3100.00000000         -30236          98322          25246          -1910
   3104.00000000         -53311         -51855         -54209           7446
   3108.00000000         -22734         -41611         -19105          16732
   3112.00000000            763          16537         -21647         -25184
   3116.00000000          29714          16358          53005          22555
   3120.00000000            338         -44226         -51121         -93576
   3124.00000000          71272          55604         -21807          -8007
   3128.00000000         -18136         -32248         -22821         -33296
   3132.00000000         -30704         -40025          15732          12183
   3136.00000000         -38354         -21844         -56859          27769
   3140.00000000         -23777         -38495         115549         -28949
   3144.00000000          14813          42171           4743         -53031
   3148.00000000           3180          23493         -70498          64620
   3152.00000000         -19010         -94266         -37919         -36825
   3156.00000000          -7795          19517         -47286         -21064
   3160.00000000         -83272          31598          30522          75033
   3164.00000000          65889          48811           3345          22171
   3168.00000000         -36458          12964         -20219         -13713
   3172.00000000         -27944         -27061          57909         -55958
   3176.00000000         -63931         -45311         -19238         -29160
   3180.00000000          36472           9257         -17516          36769
   3184.00000000        -126078          -5479           5195         -39555
   3188.00000000          47400         -68733         -35879         -18273
   3192.00000000         -21364         -25751           4233         -47689
   3196.00000000          13536          31315           9332           5899
   3200.00000000          24565          40238         -81748         -43394
   3204.00000000          67231         -69744         -37577         -67729
   3208.00000000         -11013           6810         -18221          21000
   3212.00000000         -42453         -60647         -34740          30147
   3216.00000000          26188         -19671          41851         -10806
   3220.00000000          74509         -37885           6441          26256
   3224.00000000           9454         -16940          -7298          -3565
   3228.00000000          -3716         -19828         -16139          56451
   3232.00000000          96402         -61270        -102030          44959
   3236.00000000          52371          44490          19029          11119
   3240.00000000         -28181          10367         -18639         -31584
   3244.00000000         -20146          27391          -8438          69774
   3248.00000000          54792           1416          -2187         -45363
   3252.00000000          10456          27902          35794          28060
   3256.00000000         -50118          57905          -6330          84022
   3260.00000000          64161         -10406          38441            570
   3264.00000000          -2114           9613           8008          16444
   3268.00000000          -9067           4014         -14800          41415
   3272.00000000         -17789         -25075            189         -72175
   3276.00000000          34051          18128         -32136         -58374
   3280.00000000          11780         -44571         -13330          13159
   3284.00000000         -17407          29937         -21643         -38976
   3288.00000000          18159          26541          22378          46651
   3292.00000000         -13319         -14014         -62200          -4961
   3296.00000000         -45324          13305         -35361           1808
   3300.00000000          54005          -7867          54018          40586
   3304.00000000         -69873         -54830          -9672          40725
   3308.00000000         -10121          14904          18202           1921
   3312.00000000           3912         -20654          13053         -28428
   3316.00000000         -39031          47912          54884         -25507
   3320.00000000          -8625          28021          49284         -43291
   3324.00000000           3638         -17329          -9433         -47516
   3328.00000000          -6060         -41620           2878          13560
   3332.00000000          46661         -26954           1222           9522
   3336.00000000         -15931         -24041         -33171         -28965
   3340.00000000           9990         -47807         -52647          19782
   3344.00000000         -29868         -12216          -6494          31739
   3348.00000000         -25716         -20871          18857          24233
   3352.00000000         -32444           -937           4718          20605
   3356.00000000          15652           2194           1509          19568
   3360.00000000         -36543          22407         -14093          17197
   3364.00000000          13489           7272          31457          29241
   3368.00000000          16784            614          24283           9303
   3372.00000000         -13661          22544          22072          45224
   3376.00000000           9567          -6661         -46337         -23276
   3380.00000000         -44499          14096          17425           -730
   3384.00000000           3854          -2256          32136          18182
   3388.00000000          -4992           5008          -4927         -11831
   3392.00000000          32951          33070          12161          32759
   3396.00000000           9650          49853          58593          26736
   3400.00000000          16207          19838          36807         -29565
   3404.00000000         -20223           8931          -9618           7220
   3408.00000000         -13916          -2584          55846          21560
   3412.00000000          -4236         -23881           5260          32225
   3416.00000000         -60933           3423          45446          56407
   3420.00000000          23143          -3680           8111          26962
   3424.00000000          20450          37026          60838          18156
   3428.00000000         -12395          46616         -28824         -24353
   3432.00000000         -18562         -17638          27138          20906
   3436.00000000          62809         -21607         -28302          28974
   3440.00000000          26365          -9562         -13435         -27333
   3444.00000000          34544          16665           2471           3117
   3448.00000000           -501          11325          30365          22605
   3452.00000000          13414         -13846          24071           6375
   3456.00000000          18514           6572          -5921          30775
   3460.00000000           2044         -22600         -28994          -4169
   3464.00000000          31962         -26788          -1373         -37532
   3468.00000000           5241         -23174         -25523         -68250
   3472.00000000          14966         -13098         -11289         -12176
   3476.00000000          -6910           -689         -44216         -34624
   3480.00000000           6717          30292          31044          20212
   3484.00000000           4787           2876         -29757           6056
   3488.00000000          12058         -31176          -5715         -36952
   3492.00000000          -7574          -4304          11918          -9716
   3496.00000000          -4164         -57711         -66829           6283
   3500.00000000         -21707          44642           2013         -32219
   3504.00000000         -11635         -42427         -11591         -17551
   3508.00000000          22037          -9270         -54962           -646
   3512.00000000         -28383           4048         -31509          22323
   3516.00000000           1685         -30495          12184           1958
   3520.00000000           2142          -2146           1198          40701
   3524.00000000          10403           7946         -11800          -5238
   3528.00000000          33322          35542          15509          -2789
   3532.00000000           6474          -9595           2743          -8940
   3536.00000000         -10372         -23776         -15466           6694
   3540.00000000          45631         -34934          39780           1193
   3544.00000000          41476          31933           9069         -12838
   3548.00000000          11119          -3933          -9345          -1075
   3552.00000000          -1828         -23885           9342          -1314
   3556.00000000            -39          22115          27302         -16113
   3560.00000000          15692         -26902          21453          -9678
   3564.00000000           2096             -8           1107         -15735
   3568.00000000          17556          26467         -30847           5668
   3572.00000000         -17566          25322         -30221           4591
   3576.00000000           9352          25622          -7977          -2697
   3580.00000000          17283          35308          15439         -14965
   3584.00000000           3263          28400         -21351         -24850
   3588.00000000          16977          10333           8092         -13851
   3592.00000000         -16234         -21797         -27400           2598
   3596.00000000         -43706          -8921          31945         -20940
   3600.00000000          -6332          19848          47736         -13842
   3604.00000000           1022          33060           6549          18603
   3608.00000000           5425          -4357         -10036         -19998
   3612.00000000         -10817         -13389           8301           7465
   3616.00000000         -19246          11085          -4147          13395
   3620.00000000          -1043          -6425          34880           6758
   3624.00000000         -15112           5515         -27927         -31805
   3628.00000000         -12043         -27563         -27520           2359
   3632.00000000         -25096          10141         -12853          22037
   3636.00000000           8357          19333          17839          16972
   3640.00000000          23596          29404           6795         -19361
   3644.00000000         -10037         -30536           3674         -30543
   3648.00000000           1749         -28914         -20233          34758
   3652.00000000         -19542           3090          14759         -27279
   3656.00000000          20780          29429         -34771           7216
   3660.00000000         -22560         -31186          17214          22979
   3664.00000000          35495          33647           7163           4865
   3668.00000000         -15457           6222         -23916           9427
   3672.00000000         -32411          10386           6569          -2088
   3676.00000000         -17298          30322          -5366          -3158
   3680.00000000          -5190         -23925          30239           2021
   3684.00000000           1121          -1779         -15340          14973
   3688.00000000         -19615           4548          11651         -13889
   3692.00000000           2950          20380         -23189         -14433
   3696.00000000          19280         -14305          27947          17047
   3700.00000000          13388         -18056         -42005          -8972
   3704.00000000          20408           5408         -14558          27268
   3708.00000000           8959           4300            180          16403
   3712.00000000           6835          18016          -3549           8568
   3716.00000000           8614         -10281           6728         -21528
   3720.00000000          -2705         -14684          57655           2254
   3724.00000000           5655          18985          -1526          20801
   3728.00000000           5945           3381            572         -16407
   3732.00000000         -29609         -22861          -9011          14951
   3736.00000000         -19132           -851         -21487         -37027
   3740.00000000          -7604          17531         -34395          -2635
   3744.00000000         -32689          -2141           8679          -5995
   3748.00000000          -5045           2599           7173          19484
   3752.00000000         -16247          10822          -4954         -14269
   3756.00000000         -12021           7483          -7272         -37921
   3760.00000000          -5431         -14232         -16582           6377
   3764.00000000           2421         -11451         -18500          -8168
   3768.00000000           1102          -5931         -21562         -32118
   3772.00000000         -13592         -18473         -16649           7314
   3776.00000000          -9661         -16136          -8700          -6443
   3780.00000000          14710          -6886         -20937         -28428
   3784.00000000         -37129         -12297         -42491          -5400
   3788.00000000         -13995         -14125          -5296         -12282
   3792.00000000          14742         -37084          10231         -18146
   3796.00000000         -13068          -7513         -16219          19441
   3800.00000000           9938          -7390         -25297           3371
   3804.00000000         -16455         -10124           8232         -18509
   3808.00000000          -3960          -9757         -25405          19628
   3812.00000000          23418         -16931          11288          -3635
   3816.00000000         -11990         -17424          13897          -6477
   3820.00000000          11770           9732           4257         -17155
   3824.00000000          37062          30584          -7943           2073
   3828.00000000         -10664          15406          11721          24181
   3832.00000000          10028          30503           5273            742
   3836.00000000          -9675          19841         -10457          11359
   3840.00000000          10746          38908         -12292          -5223
   3844.00000000           5192           5422          17701          29676
   3848.00000000           -915          27104           5807          -9373
   3852.00000000          50503         -12546           9784          15560
   3856.00000000         -30326           2466           4232          14432
   3860.00000000          17089           9023           2968          -2429
   3864.00000000           5135           6005          -5920           4241
   3868.00000000           9321          -6169          -3258         -10094
   3872.00000000           3017           5048          -2256          18709
   3876.00000000          14967          25900          -2776           8511
   3880.00000000          35025         -26506          -2472         -34766
   3884.00000000          -8038          -7957           -436          15877
   3888.00000000          16452          20109         -20032          17833
   3892.00000000          -5104           2269           1182          -6140
   3896.00000000          -5246            564           -767           3600
   3900.00000000         -12971          -5470         -25361         -17199
   3904.00000000           9007          16326          -8146         -21776
   3908.00000000         -15207         -13578          -2095          -2949
   3912.00000000          11968          -6022           5114         -28202
   3916.00000000         -12985         -17099         -39601          -6655
   3920.00000000         -20697           9526          -6891           1198
   3924.00000000         -22456           4118          11900         -13098
   3928.00000000          -5271           9110         -25103         -21616
   3932.00000000         -47681           4752          -7538          -5868
   3936.00000000         -17588          -7807           4499           1314
   3940.00000000          -3462          10880          -8347          19136
   3944.00000000          -1453           -288          -6088           1362
   3948.00000000         -22140          15580          -1140          12339
   3952.00000000         -12436          -8171          11444            265
   3956.00000000         -10545          -5242         -10399         -10430
   3960.00000000          -1898           4726           5038          10599
   3964.00000000           5851          13372          12510         -18995
   3968.00000000          -9077          -6116          11711          -5923
   3972.00000000         -11732         -10430           4329          18966
   3976.00000000           4122           8904         -13982          14513
   3980.00000000          -6403         -11303          11847           9546
   3984.00000000           -545           9584          19813          -2284
   3988.00000000          -7764         -11343          23017           3398
   3992.00000000          -3008          -6058          33129         -23871
   3996.00000000          -5950          -2181          -2150           9752
   4000.00000000         -12781           2397          -5766          -3702
   4004.00000000          -8200          14471          21586            640
   4008.00000000           2764           5827          22281          -9292
   4012.00000000           -826           6900           8772           3094
   4016.00000000           5466           5641           8329         -11452
   4020.00000000           5643          -9045          29463           1475
   4024.00000000          11269           2766           2080         -11178
   4028.00000000          -7297           1881          13446          11708
   4032.00000000          13518           6785         -13406          -1336
   4036.00000000          -4114          -8403           7343           2936
   4040.00000000          14543          -8122          12802           8903
   4044.00000000           6138          -4819           5555          17373
   4048.00000000           3116          -3723           2929          -5237
   4052.00000000           3239          -2786          -3064         -14967
   4056.00000000          14369         -18221           -194          13056
   4060.00000000          -5817           9348          -5424          -8006
   4064.00000000          -8803         -13838         -23055          -4345
   4068.00000000           7138         -11104          -6091          -7188
   4072.00000000           3319         -11509         -23428          -9110
   4076.00000000           -985           -349          -8369          -7533
   4080.00000000          -5388           6753          -2174          -1197
   4084.00000000          -4644          -6548         -10884           8797
   4088.00000000           6901          -3289           4993         -24734
   4092.00000000          -5623           2050           4908           1846
   4096.00000000          -2357         -10031           6004           2602
   4100.00000000         -10149          -6999         -11896           1798
   4104.00000000          -5505           8576          14556          -7905
   4108.00000000          25772         -21729         -11247           2893
   4112.00000000           6945         -11989          -2139           5890
   4116.00000000           2539          12327          22956           9499
   4120.00000000          -1236          15718          13536          12156
   4124.00000000          11919           4775          -8091           8658
   4128.00000000           -280           8397          10047         -12048
   4132.00000000          -7938           1025          19123           3223
   4136.00000000           4511          -8972           1629          12979
   4140.00000000          -9651          -6256         -15237          -1943
   4144.00000000          12772          19342           -167          -4689
   4148.00000000          20459         -12093         -26026          11986
   4152.00000000          17374          21754           4666           4598
   4156.00000000           3361         -24755           4231          13921
   4160.00000000          -9277           6636          -7430           -773
   4164.00000000          -3056          -1765          -8191          -2060
   4168.00000000          10952          -8461          15299           7395
   4172.00000000          -2786          -7994         -19521           2411
   4176.00000000          10208           3207          -5999          -9652
   4180.00000000            -24         -12015           7556           1737
   4184.00000000          -6668          -5709          18463            560
   4188.00000000         -16045          -7090           3208            662
   4192.00000000          -1744          -4019          10204         -11527
   4196.00000000          -4405           6628          -5296           4059
   4200.00000000           1538           9164          -2173           3478
   4204.00000000          -6956          -3271          -5796          -5129
   4208.00000000           3878         -10371          16938          -3534
   4212.00000000         -21036          15361           4179          -6774
   4216.00000000           4878         -19315           8679          -3070
   4220.00000000           4793            446           3349          -5379
   4224.00000000          10803          -5853         -14854           5073
   4228.00000000          -5807          -9200          10126         -11652
   4232.00000000          -9281            210         -10701         -13095
   4236.00000000          -2236            332          -9820           2779
   4240.00000000          -7177          -2042             53          21361
   4244.00000000          -2896           6456          20874          -5305
   4248.00000000          -2550           8933           3990           6520
   4252.00000000            530          13638         -11301         -12962
   4256.00000000           6552           3756         -11467           6244
   4260.00000000          20522          -1804         -10668          -9464
   4264.00000000           7528          -5079          20132          -2148
   4268.00000000         -20296          -5855           7069           2551
   4272.00000000           1320         -12612          -3859           1633
   4276.00000000           2733         -10621           2421            727
   4280.00000000          -1278           5487         -11098          -2602
   4284.00000000          11278           2569          -7277          13331
   4288.00000000         -12296           9023          -6752          -8192
   4292.00000000           8959          -4484         -16219         -13760
   4296.00000000           2109           7904           9125          14574
   4300.00000000            108           7990          -1986          -2316
   4304.00000000           6303           4589           1572          -3721
   4308.00000000           2009         -24773           7722           1169
   4312.00000000          17514          -2470          10889           5512
   4316.00000000            719           4519           4901          14935
   4320.00000000          -3350           5554           5597          12760
   4324.00000000          10683          12410           -306           7837
   4328.00000000         -10342         -12619           5428          10175
   4332.00000000          -2532           7527          -5496            390
   4336.00000000           1509           4950          -1940          -7212
   4340.00000000           1401           6803           8666           3895
   4344.00000000            948           5286          -1632          -5320
   4348.00000000           -926          -2413           8100          -8588
   4352.00000000          -2733           2064          -6256          -3547
   4356.00000000         -10207          10955          -4971           4662
   4360.00000000          -3452           6434          -2679          -7752
   4364.00000000          -4212            903           2509          13412
   4368.00000000          -5119          -6493           5636           2780
   4372.00000000           5010          10895           8128          -5327
   4376.00000000          -3774          -8833           6376         -13222
   4380.00000000           2628          -8345          11000           8113
   4384.00000000           7406           6706         -12264          -6718
   4388.00000000           4501           4005          20217           5502
   4392.00000000           5054            496          -4887          -1822
   4396.00000000           -585          19775          -6857          -2919
   4400.00000000          -9393           -592          -4626           1030
   4404.00000000           -919           8560           6189          -7663
   4408.00000000           9932          -2824           1935           5090
   4412.00000000          -7304           2492           3454           4305
   4416.00000000         -14949           3783           7281          -1757
   4420.00000000          15068          -4760           4549          15159
   4424.00000000          -9787          -8587          -5095           3754
   4428.00000000          -7687           8383          18208          -9424
   4432.00000000          -7086          -6262          -4517          -2517
   4436.00000000          13066           6291           5402             11
   4440.00000000            707          14424           7052          13719
   4444.00000000           8511           1883           6160          -9119
   4448.00000000           2415           4709         -11393           1564
   4452.00000000          11742          -3036          -3891          11519
   4456.00000000         -12608          -2068           7677          -9208
   4460.00000000           1343          -3819            894           7463
   4464.00000000           8386           2483          -8418            744
   4468.00000000          -4151           6595           3009          -8515
   4472.00000000          -2583          -1381           9428           1242
   4476.00000000          -8526          -2323           -369           -870
   4480.00000000          -9131           2276         -15331            100
   4484.00000000           3929          10121           -511           -884
   4488.00000000           3569          -6475          -9905         -11079
   4492.00000000           1418          -3224            794           3908
   4496.00000000          -1243          -4193          11328          12889
   4500.00000000           -420            868          -7026          -3086
   4504.00000000          -6184          -9223          -6214          -6728
   4508.00000000          -2606          10750          -2946         -12526
   4512.00000000          -7297          -6177          -7313          10681
   4516.00000000          -3312          -1823           6850           8119
   4520.00000000           -235           -255           4416         -12042
   4524.00000000          -4716          -3168          -4458          -3025
   4528.00000000           -375           6861         -17147          -3233
   4532.00000000          -3676          -1264           5815           6831
   4536.00000000           1966          -5131           2529          -2457
   4540.00000000           5929            533         -10978          -4424
   4544.00000000          -5043          -8379          -6367          -1159
   4548.00000000           2818          -1632          -1431            808
   4552.00000000            672           6748           2608         -12752
   4556.00000000           2482           7395          -5128           2938
   4560.00000000          -6592          10211          13366           5506
   4564.00000000          -9221           8448          -2152           3802
   4568.00000000          -2457          -4900            652          -5202
   4572.00000000          -1148          -9237           3148           -549
   4576.00000000          10345            646           4898           6492
   4580.00000000           4647           5218           2307           5805
   4584.00000000           2586          -5878          -8118            766
   4588.00000000          -4563           4148          -1620           4774
   4592.00000000            972           2856          -7589           2950
   4596.00000000           7682          -1985         -11458           7509
   4600.00000000           7047           6202          -2176           2405
   4604.00000000          13292          -4177           1395          -1438
   4608.00000000           -650           1763          14660             77
   4612.00000000           6873           -111           2201          -6098
   4616.00000000           8604          11008          -3722          10529
   4620.00000000           1049          -7992           -598          12217
   4624.00000000           1529            614          -5760           4666
   4628.00000000          -2366          -4472          -3039          -3302
   4632.00000000          -2520           8764           8887           -485
   4636.00000000           6444          -7801            293         -10624
   4640.00000000           6005          -3777          -4634          -2506
   4644.00000000           3104           1642           1878          -7328
   4648.00000000          -5836          -1761           1706          -2322
   4652.00000000           5518          -6039           1115           6165
   4656.00000000           9154          -2051           3808          -2822
   4660.00000000           6230          -5327           6504          -1861
   4664.00000000          -5939          -1715          -1343           1214
   4668.00000000           6155          -9155           7288          -1784
   4672.00000000           6069            154         -10473           6863
   4676.00000000           -628           5189           1460           8387
   4680.00000000         -10413          -2670          -2970          -4474
   4684.00000000           1124           2942           -317           1269
   4688.00000000          -9462          -2967          -5121           2673
   4692.00000000          -3389           2956           3505           -733
   4696.00000000           2388            714          -2783           2316
   4700.00000000           6935         -14041          -1987            371
   4704.00000000           -362           3821          -3782           4952
   4708.00000000          -2052          10650           4016          -1854
   4712.00000000           2694          -4746           3219           5124
   4716.00000000            273           4201          -2532           1887
   4720.00000000          -1702          -5331         -11673           3533
   4724.00000000          -3993          -3826          -2947          -3984
   4728.00000000           8412           2765          10009           3858
   4732.00000000          -5317           2288          -1547           4395
   4736.00000000           -491          -4897           5999           3650
   4740.00000000          -1965          -2797           1699          -1242
   4744.00000000           -472          -2705            220          -1049
   4748.00000000           5469           -984          -2261          -2669
   4752.00000000           3160           1042            483           2577
   4756.00000000            423          -6266           1336           7597
   4760.00000000          11051          -8258           1671           8138
   4764.00000000          -3912          -1760           2727           -543
   4768.00000000           7916           -778           3900           3074
   4772.00000000           6294          -2075           -456            115
   4776.00000000           3459          -7987           -422           4505
   4780.00000000            680           7369          -5732           2833
   4784.00000000           -876          -6893           2764           6799
   4788.00000000           8891         -10636          -1904           2618
   4792.00000000            913           3295           5745            701
   4796.00000000           7599           5837           -253           -317
   4800.00000000          10906            931           1906          -1406
   4804.00000000           3008            663           5509           -315
   4808.00000000          -5794          -3373           7842           6351
   4812.00000000           1127           7286           2237           1905
   4816.00000000           3291           5317           -502          -5721
   4820.00000000           1066           2508          -2778          -4899
   4824.00000000          -3204           1662           5984          -3346
   4828.00000000          -3081          11339          -8107          -1331
   4832.00000000           4323            664           1068          -1612
   4836.00000000           -178            539          -8233           -260
   4840.00000000           -558          -4722           -787             43
   4844.00000000           8636            447           9026            947
   4848.00000000           4892           4372           -826           4006
   4852.00000000           8179         -10096          -8111           4316
   4856.00000000          -5932          -4598           6153           9406
   4860.00000000          -4114          -3575            567          -5929
   4864.00000000          -3892           2781            839          -2424
   4868.00000000           -289          11970           6688            739
   4872.00000000           1975          -3016          -4851           3019
   4876.00000000           3565           4748          -2158           4943
   4880.00000000          -3604          -4104          -3842           5393
   4884.00000000           7338           9220           8993          -2738
   4888.00000000           6742          -2628          -4551          -4962
   4892.00000000          -1772           2062           3288           2950
   4896.00000000           6266          -2011          -8161           3371
   4900.00000000          -4101           9648          -2146           -247
   4904.00000000          -5215          -2258            730          -2985
   4908.00000000           1821             57           3599          -4390
   4912.00000000          -2121           -338          -3943           1670
   4916.00000000          -1087          -3685            122           -816
   4920.00000000           4182          -7183           1488           3234
   4924.00000000          -5314            709           1111          -2529
   4928.00000000           2228           4571           1547           1761
   4932.00000000           3029          -2891          -3760           -357
   4936.00000000          -2406          -2447           1123          -2772
   4940.00000000          -4113           5561          -6695           1830
   4944.00000000          -3537          -3083          -1286          -7032
   4948.00000000           3909            960          -1989          -2615
   4952.00000000            -27           5635           1490           5378
   4956.00000000          -1415          -1896          -3402           -283
   4960.00000000            689           -190          -1054           2397
   4964.00000000            772           3672          -2686          -5898
   4968.00000000             60           -750           -216            -90
   4972.00000000           2054          -5312           4218           1937
   4976.00000000          -2014          -5304           -215           3303
   4980.00000000            838           1630           2796           -466
   4984.00000000           6939           3848           6147           2758
   4988.00000000           1704           4768           4196          -1638
   4992.00000000           3108          -3324           -768          -2316
   4996.00000000           -877            608           8631          -2609
   5000.00000000           -114          -1483          -6349            803
   5004.00000000          -1960           1283          -1827           1709
   5008.00000000           3555          -2938            265           5225
   5012.00000000          -2575           1936           -201            615
   5016.00000000          -3861           4579          -2931           2268
   5020.00000000           1456           3244          -2399           1527
   5024.00000000            775            682           5823           5554
   5028.00000000          -2092          -3423           3471           8185
   5032.00000000          -2014          -1243          -2003          -2481
   5036.00000000           -158             47          -3098           4154
   5040.00000000             -4           1524           -581          -5951
   5044.00000000          -4034           3284          -1740          -4023
   5048.00000000           3271          -6583          -2004           -884
   5052.00000000            190           -222           -387          -2461
   5056.00000000          -1181           -503           -412           -560
   5060.00000000           1767           1331           -483           2783
   5064.00000000           4794           2735           -607          -5011
   5068.00000000          -3181           -313          -1614          -1044
   5072.00000000          -3720           -437           4680          -1976
   5076.00000000          -4786          -1544          -1622            733
   5080.00000000            578            220          -4826            817
   5084.00000000          -1700            447          -4437          -2812
   5088.00000000          -3849          -3087           1767           2216
   5092.00000000           1730           2344           -684           -997
   5096.00000000            762           4092            115          -1653
   5100.00000000           1202           1339            789          -5049
   5104.00000000           -580           1374          -1454            732
   5108.00000000           -563          -4467           -125          -1702
   5112.00000000           4730           2616            600          -1673
   5116.00000000           8337          -1769           1205          -2316
   5120.00000000          -1910          -2328           7472          -3027
   5124.00000000           -186           3644            737          -2091
   5128.00000000            818           -316           1591           6237
   5132.00000000           1723           2626          -1207           2441
   5136.00000000            897           2756          -6086          -7334
   5140.00000000          -1323           2086           3997          -1102
   5144.00000000            775           -716           6361           1804
   5148.00000000           2138          -1627            215           3628
   5152.00000000          -4546          -3314          -1223           2526
   5156.00000000          -1258          -1631           3260           2624
   5160.00000000           4402            126            370            682
   5164.00000000          -1407           -268           1348          -3250
   5168.00000000           1970           -440           3291           1008
   5172.00000000           -133           3413          -4140           3491
   5176.00000000          -2475          -4577           2655           1916
   5180.00000000          -2115            873           -690            884
   5184.00000000           4571           -123          -5173          -4573
   5188.00000000           -606           4632          -4503           2766
   5192.00000000           -916           -825           1420           5242
   5196.00000000           -734           -186           3808           -841
   5200.00000000           -643            625            558           3137
   5204.00000000           1008           -767          -1589          -2703
   5208.00000000            736          -3967           1632          -3787
   5212.00000000          -1436          -1922          -1045            148
   5216.00000000          -1702            646            917          -3699
   5220.00000000            580          -1727          -2673          -1081
   5224.00000000          -4319          -2450            877           1034
   5228.00000000          -2367           2449            709            318
   5232.00000000          -5363              3           -703           -342
   5236.00000000          -1860           1497           -407          -1360
   5240.00000000            652          -2112            794            181
   5244.00000000           3865            587           3385            817
   5248.00000000            373            650          -1883          -2872
   5252.00000000          -2308           3901          -1089           2044
   5256.00000000           1693            240          -3513           -588
   5260.00000000           -622          -1201          -1856           1628
   5264.00000000          -2552           -909          -1197          -1513
   5268.00000000           -537           3070          -1843           1874
   5272.00000000            279            503            822          -4339
   5276.00000000           -991          -2458           -410          -1235
   5280.00000000           -559           4016          -3178           -125
   5284.00000000          -1629           1087           3740          -1632
   5288.00000000            920          -2206          -2968           2532
   5292.00000000           3683           2120          -3252           -306
   5296.00000000           1023           -830          -1073            703
   5300.00000000          -1831           3781            721            895
   5304.00000000            794           -508          -1772          -2475
   5308.00000000            387           1390          -2529             53
   5312.00000000           1817          -1799          -1454           -174
   5316.00000000           2144          -4104           1776           1150
   5320.00000000            378           3030           1036          -1615
   5324.00000000           2464            -13          -3199           1704
   5328.00000000           -516           -349            288            572
   5332.00000000          -3558             63           -292           2232
   5336.00000000           1291          -2764           2180           2107
   5340.00000000            604           2168           2685             51
   5344.00000000          -1071          -1121          -2391          -3046
   5348.00000000           -710           -695           1288          -2251
   5352.00000000           1702             -9           -996            139
   5356.00000000          -1269          -1808           2601            236
   5360.00000000          -2278          -1726           2027          -1357
   5364.00000000           1713            995           -784           -134
   5368.00000000            138           2556          -1137           2850
   5372.00000000           -254           2424          -1387            359
   5376.00000000          -2291          -3808            -21          -1950
   5380.00000000          -3993           1529          -2352          -2774
   5384.00000000          -1550           2903           1194          -1363
   5388.00000000           3285            222           -649          -1476
   5392.00000000          -1502          -2865           -227             85
   5396.00000000          -2205          -1436           1800           1995
   5400.00000000           -907           -105           -710            572
   5404.00000000            911          -1017           3382            552
   5408.00000000           2844             12           -319          -5107
   5412.00000000            926           -503            -72           1452
   5416.00000000          -1004           -431          -1432           3756
   5420.00000000           -876           1987           2852           2305
   5424.00000000            329            317            187             88
   5428.00000000            -85           2959          -1664          -2099
   5432.00000000          -1260          -1028            100           -965
   5436.00000000           1930          -1318          -1016           2504
   5440.00000000           -167           -848           2007           -272
   5444.00000000           -580           2334          -3480          -4244
   5448.00000000           1916           -991          -1500          -1068
   5452.00000000           2117            266            538          -1166
   5456.00000000           -957           3119           1628           2432
   5460.00000000            554          -1370          -1449          -2443
   5464.00000000          -1933          -3190          -3876            794
   5468.00000000           -872          -3474          -4158          -1545
   5472.00000000          -4044          -2208           -404           2745
   5476.00000000            669           -425            -12           1793
   5480.00000000           -958             95          -3017           -492
   5484.00000000          -1621            158           1927           1843
   5488.00000000            -19          -2839             69            149
   5492.00000000           -114            880          -1612           1297
   5496.00000000          -1942           1185          -2297           1480
   5500.00000000          -2554          -3339           1324           1189
   5504.00000000           1396          -3409          -1503            -53
   5508.00000000            912          -2949           1825           1475
   5512.00000000            152           -343          -1288           1222
   5516.00000000           -873           -580          -2324           2569
   5520.00000000           -985          -3201          -1270           6006
   5524.00000000            -87           2004           1910           1340
   5528.00000000           -503           -435           2463           1501
   5532.00000000           1244           1014          -1237          -1099
   5536.00000000           1335           -312            564            393
   5540.00000000            877          -2200           3423          -3524
   5544.00000000           1158            811          -1711          -1282
   5548.00000000             97            540          -1800          -2810
   5552.00000000           3679            259            -88           -654
   5556.00000000           3211           -216          -1950          -1846
   5560.00000000           -692          -2854            -28          -1504
   5564.00000000           1166           -771            -84            285
   5568.00000000            949          -1588          -1650           -347
   5572.00000000          -3161          -1657           -404           -674
   5576.00000000          -1381           3616           -251           -641
   5580.00000000            220           1555           -819           -186
   5584.00000000            891            477           -456          -1255
   5588.00000000           -302             -8           -627            658
   5592.00000000           1305           2591          -1047           -391
   5596.00000000           1056            341          -3014            766
   5600.00000000           -934           1293           1550           -383
   5604.00000000           1248           2554           -737          -1660
   5608.00000000           1759            239          -1571           -498
   5612.00000000            341           2136            -72          -1235
   5616.00000000           -166          -1397           -466             65
   5620.00000000           -301           -280           1707            672
   5624.00000000            244           2454             19             54
   5628.00000000            340            980            509          -1181
   5632.00000000          -1931          -1022            406           -830
   5636.00000000           -611          -2401            405          -1229
   5640.00000000           -502           1172           -268          -1687
   5644.00000000            392            818           -634          -1295
   5648.00000000           -817           -472           1312           1005
   5652.00000000           1647            314            473             11
   5656.00000000            428            -14             81           -592
   5660.00000000           1532           -171           -239            286
   5664.00000000          -1017            -45           -824             83
   5668.00000000           -192          -2027            190            347
   5672.00000000           1447           -905          -2008           2224
   5676.00000000           1790          -1702          -2337           -851
   5680.00000000          -2823          -2839           -220           2528
   5684.00000000            471           -225          -1337          -2733
   5688.00000000            538          -2173            635          -1342
   5692.00000000            805           1208          -1193          -1362
   5696.00000000            373           -222           2003           -584
   5700.00000000          -2026           4238          -1750           1086
   5704.00000000            709            674           -182            502
   5708.00000000           -771           -115           -708           1438
   5712.00000000            541           -375            170             32
   5716.00000000          -2740           -897           -143           -409
   5720.00000000            584           2296          -2849            359
   5724.00000000           -145           2014            484            755
   5728.00000000           -498           1223            473           1310
   5732.00000000          -1134           1937            136            476
   5736.00000000          -1048          -1071           -233           1249
   5740.00000000            845            467          -2541          -1324
   5744.00000000           -622           1225            181           -221
   5748.00000000           -274          -1316            546            714
   5752.00000000           1013           -181           3264            873
   5756.00000000            101            -72           1370          -2162
   5760.00000000           1027            456           1402           2010
   5764.00000000             60            791            798           -568
   5768.00000000            767            436            113            946
   5772.00000000            519            668           1715           -873
   5776.00000000           1341             46          -2139           -898
   5780.00000000            556           1051           2101           1790
   5784.00000000          -2032           -586          -2042           1334
   5788.00000000            495           -183           -194            136
   5792.00000000            920            655           -161           1686
   5796.00000000          -1077           1637           -667            399
   5800.00000000           2284            120            769          -1789
   5804.00000000            929            910            927           -593
   5808.00000000           1038          -1516          -1656           1988
   5812.00000000           -432          -2328           1341           -561
   5816.00000000           -941           -571           -230          -1393
   5820.00000000            785            769            707          -1924
   5824.00000000           -808           -677          -2024            842
   5828.00000000            145          -1429           -807          -1965
   5832.00000000            746          -1293           1456           1007
   5836.00000000           -921           -323            339          -2307
   5840.00000000             66           1894           1538           1362
   5844.00000000            536           -430           -221           1623
   5848.00000000            748           1648           1022           1129
   5852.00000000          -2441            396          -2094            404
   5856.00000000             13           -739           2086            825
   5860.00000000            336           1174              3             30
   5864.00000000            718           1052            868            283
   5868.00000000           -526           1535           1226           -373
   5872.00000000           1060           1625          -1446           -367
   5876.00000000           1408            951           1481            175
   5880.00000000            421           -340            694            289
   5884.00000000            713           1837            427             59
   5888.00000000           -461            -23            284            147
   5892.00000000           1228          -2179            553           -262
   5896.00000000            665           -574           -277           -275
   5900.00000000            836            903           -515          -1094
   5904.00000000            369          -1520            624            -53
   5908.00000000            -94           -538           1275           -134
   5912.00000000          -2212            487          -1827           -991
   5916.00000000           1799           2370            589            768
   5920.00000000            654           -394           -716          -1626
   5924.00000000            141          -1348            120             -2
   5928.00000000            378          -1115             31           -880
   5932.00000000           -435           -353           2496            791
   5936.00000000              8           -849             24           -302
   5940.00000000            228            106           2146            146
   5944.00000000             89          -1098           1334           1405
   5948.00000000            844           -314            210          -1083
   5952.00000000           -271            504            570            893
   5956.00000000           -320           -229           1720           -382
   5960.00000000            215          -2408            657          -1368
   5964.00000000            516           -490          -1056            -64
   5968.00000000           -981            998           -544           1190
   5972.00000000           1195           1063           -280           -582
   5976.00000000            676           -434           1314           -244
   5980.00000000           -207            -86            863           -970
   5984.00000000           -701          -1432           -408           1040
   5988.00000000            177          -1163           -433            118
   5992.00000000          -1047           -291           -477           -390
   5996.00000000           1398           -422           -419           -986
   6000.00000000           -768            739            623             30
   6004.00000000            976           1828            218          -1214
   6008.00000000          -1079            433            611           -741
   6012.00000000            751           -802           -284           -297
   6016.00000000          -1056            -81          -1664            150
   6020.00000000          -1562           1463          -1605           -427
   6024.00000000           1566            517           1169           1183
   6028.00000000            217           -568           -342            243
   6032.00000000            679           -134          -1137            124
   6036.00000000            -39            110           -537             41
   6040.00000000           -213            889            515             19
   6044.00000000           -680            717            188           -342
   6048.00000000           1038           -207            364           -573
   6052.00000000            428           -134            428            631
   6056.00000000          -1024           -701           -186           -354
   6060.00000000            980           1156            608           -398
   6064.00000000           -725            847            751            475
   6068.00000000            255             51           -957            -38
   6072.00000000           -352           -797          -1347            -98
   6076.00000000            956          -1232            -62           1084
   6080.00000000           -760            558            418            877
   6084.00000000          -1002            840            487           -633
   6088.00000000          -1483           -292           -569           -870
   6092.00000000             68            141           1844            171
   6096.00000000            943           -148           1398          -1273
   6100.00000000            147            912           -957           -337
   6104.00000000           -153           -159          -1574            963
   6108.00000000             51           1243           -232           -220
   6112.00000000            317           -483           -636            -37
   6116.00000000           -791          -1289            785          -1318
   6120.00000000           1127           -104           -472           -129
   6124.00000000           -145           -798            941            -69
   6128.00000000           -255           -293           -812            619
   6132.00000000           -549            206           -612           1047
   6136.00000000           1296            206           -464           1448
   6140.00000000          -1562           1563            162          -1037
   6144.00000000           -577            268           -244           -257
   6148.00000000           -891           -212           -383           -675
   6152.00000000            171            154            430           -686
   6156.00000000            446            182           -110            694
   6160.00000000           -541           -410           -875           1045
   6164.00000000           -952           -756            441           1118
   6168.00000000            789           -113          -1158            123
   6172.00000000           -948            329          -1505            610
   6176.00000000          -1278            971           -735            715
   6180.00000000            583            105          -1117            -28
   6184.00000000           -398            182           -726            149
   6188.00000000            922            -36           1106            224
   6192.00000000            787           -319           1292           -197
   6196.00000000            633          -1414            438           -400
   6200.00000000           -383             40            763            690
   6204.00000000            417           -387            397            -47
   6208.00000000           -320            343           -974           -716
   6212.00000000           -571            591           -382             42
   6216.00000000            625           -970            335            542
   6220.00000000           1163           -476           -655           -684
   6224.00000000            220           -502           -759          -1120
   6228.00000000            412           -443            960           -233
   6232.00000000           1036           1652            700           2522
   6236.00000000            274           -444            917            -13
   6240.00000000           -571           -130           -273           1058
   6244.00000000           -215          -1083           -933            -39
   6248.00000000            299            105           -323           -668
   6252.00000000           -268           -141            273            453
   6256.00000000           -416           -494            -92            404
   6260.00000000             53           -847            261           -307
   6264.00000000           -357            264           -516            574
   6268.00000000           -582           -520            304            277
   6272.00000000           -250           -468            480           -278
   6276.00000000           -269           -320           -386             66
   6280.00000000          -1083            157           -759           -481
   6284.00000000           1126           -788              2           -195
   6288.00000000            448            173            182            -94
   6292.00000000            -49            583            237           1023
   6296.00000000           -961           -869             93           1062
   6300.00000000           -357            866           -503           1145
   6304.00000000           -192            357            331            524
   6308.00000000           -488           -545           -316            223
   6312.00000000           -265           -552           -418             58
   6316.00000000           -391            900            377            731
   6320.00000000            -14            629          -1391            978
   6324.00000000           -139            190            156            443
   6328.00000000           -962             14              3            259
   6332.00000000            721           -597            773            539
   6336.00000000            458           -257           -378            492
   6340.00000000            325           -452           1073            796
   6344.00000000            156            887            738           -160
   6348.00000000            631             -9           -488           -960
   6352.00000000            293           -279           -133            290
   6356.00000000          -1034           -464            256            -56
   6360.00000000            960           -422            105            482
   6364.00000000           -258            487           -604            122
   6368.00000000            527            343             20            418
   6372.00000000            766            279            -26            579
   6376.00000000            543             94            643            227
   6380.00000000            381            296            572            206
   6384.00000000           -536            466           -204            130
   6388.00000000            244            268            146            774
   6392.00000000           -432            611            250           -489
   6396.00000000            628           -185             -4             94
   6400.00000000            195             16            250           -329
   6404.00000000           -597           -475            -44            911
   6408.00000000           -124            600            109           -460
   6412.00000000           -781            683           -165            340
   6416.00000000           -295           -101            579            184
   6420.00000000           -189           -327            647            -90
   6424.00000000            156            -90            -78            474
   6428.00000000            471           -365           -268           -107
   6432.00000000          -1220           -378           -487           -127
   6436.00000000           -105           -425            443            752
   6440.00000000           -668           -550            289           -490
   6444.00000000             41             82            452           -538
   6448.00000000            268            147            201            285
   6452.00000000           -716             58           -214            371
   6456.00000000           -129             39            910            126
   6460.00000000           -854           -511            612           -118
   6464.00000000            924           -780           -948            301
   6468.00000000             66            -43           -393           -627
   6472.00000000           -323           -177           -291           -476
   6476.00000000            340            192           -641           -807
   6480.00000000             -7           -340            426           -336
   6484.00000000           -632           -100           -705            319
   6488.00000000            578            605            307           -364
   6492.00000000           -380            882           -507          -1326
   6496.00000000           -273            510              3            458
   6500.00000000           -466            -77            -94            491
   6504.00000000             46           -658           -132            -80
   6508.00000000            335            -68           -643           -548
   6512.00000000            239           -362           -224            435
   6516.00000000           -172          -1062            -27            924
   6520.00000000           -202            142           -357            594
   6524.00000000            105           -498           -170           -462
   6528.00000000           -451           -132           -193            493
   6532.00000000            384           -339            383             54
   6536.00000000            235            -47            607           -853
   6540.00000000           -295           -327             -5            330
   6544.00000000           -559            209            506           -136
   6548.00000000            393           -711           -919            555
   6552.00000000            -17            188           -755              6
   6556.00000000           -348            284            354            476
   6560.00000000            209            321            -37            -49
   6564.00000000            146            368           -103           -198
   6568.00000000           -112            448            383             19
   6572.00000000            182           -486            719            795
   6576.00000000            230             26            674           -481
   6580.00000000           -210           -125           -782            110
   6584.00000000            237            457            434           -166
   6588.00000000           -332            506           -449            -21
   6592.00000000            294           -472           -538            761
   6596.00000000             83           -696           -213           -144
   6600.00000000            462            118            250            192
   6604.00000000           -302            166           -353             45
   6608.00000000           -315           -578           -274            416
   6612.00000000            142            216             64           -939
   6616.00000000            254            203            -74            -87
   6620.00000000           -263            420           -134           -795
   6624.00000000            103             11           -288           -240
   6628.00000000            130           -292            -59           -134
   6632.00000000           -478           -175           -219            281
   6636.00000000            111           -775           -189             84
   6640.00000000            -26            121            266           -323
   6644.00000000            357             -5           -307           -234
   6648.00000000           -192            180           1097           -344
   6652.00000000           -292           -157            -73           -230
   6656.00000000           -311            481            282            399
   6660.00000000           -283            249             66            593
   6664.00000000           -314            110            300           -184
   6668.00000000           -801           -226           -155            386
   6672.00000000           -251            -74            396           -446
   6676.00000000           -591              8           -337            663
   6680.00000000             -3             21            243           -222
   6684.00000000           -142           -118           -260            428
   6688.00000000           -885            -59           -283           -182
   6692.00000000           -350           -612           -602            526
   6696.00000000             76           -462            636             39
   6700.00000000            148           -274            231           -127
   6704.00000000            346            104            190            144
   6708.00000000           -137            -47             44              9
   6712.00000000            -38            345           -196             97
   6716.00000000            478           -341            110           -126
   6720.00000000            131            260           -117            -91
   6724.00000000            184             30            286           -336
   6728.00000000           -311            321           -505            587
   6732.00000000             32              6           -110             38
   6736.00000000            -10           -289            -51           -126
   6740.00000000           -485            -34           -208           -192
   6744.00000000            142            -14           -150           -615
   6748.00000000           -143           -126              0            405
   6752.00000000           -253           -398           -501            249
   6756.00000000            388           -224            503             63
   6760.00000000             82           -234            147           -137
   6764.00000000            465            199            186           -261
   6768.00000000            204           -300             23            105
   6772.00000000            237            251           -103           -281
   6776.00000000             -3            314             18             -8
   6780.00000000            153             -5           -110           -308
   6784.00000000           -530            494             55              6
   6788.00000000            176            -64             37              9
   6792.00000000           -260            279             84           -180
   6796.00000000            114            -48            331           -280
   6800.00000000           -599            119           -124            129
   6804.00000000            -78            310            315            -40
   6808.00000000            -32           -451           -369            326
   6812.00000000             97           -189           -215            -57
   6816.00000000           -444              7            -21            -77
   6820.00000000           -262            467            110            -19
   6824.00000000            713            333            140            260
   6828.00000000           -114           -445            -55            335
   6832.00000000            162            103           -152            240
   6836.00000000            -90            187            332            118
   6840.00000000            400             91           -238           -102
   6844.00000000             92            173           -301            -85
   6848.00000000            138             84             83            206
   6852.00000000             60            149            148            591
   6856.00000000           -607            459            -56            295
   6860.00000000           -186            142            428            -40
   6864.00000000            200            313            640           -453
   6868.00000000           -181            183            -33             78
   6872.00000000            -76            585           -153           -244
   6876.00000000            530           -226           -434            -82
   6880.00000000           -338           -356             27           -355
   6884.00000000             80           -800           -162           -241
   6888.00000000            259           -150            113            429
   6892.00000000             40            111           -147            220
   6896.00000000           -132             -5           -310           -293
   6900.00000000           -228           -104            197            131
   6904.00000000           -108           -419            296            101
   6908.00000000            204             39           -297           -644
   6912.00000000            227           -156           -376           -349
   6916.00000000           -572           -137           -151           -135
   6920.00000000             98           -175           -172           -193
   6924.00000000             30           -126            272            -80
   6928.00000000             61            121           -485             98
   6932.00000000           -200           -116            379            261
   6936.00000000            -61           -338            115           -244
   6940.00000000            -57             26            129           -169
   6944.00000000            -29            131            110             19
   6948.00000000            190            305             18            210
   6952.00000000            431             25           -198           -147
   6956.00000000            162           -445             95            449
   6960.00000000            193             10            215           -630
   6964.00000000            -35            255            330            -57
   6968.00000000            281            149            271           -319
   6972.00000000           -108            145            174             44
   6976.00000000             48           -374            -80            -64
   6980.00000000           -389            415            239           -204
   6984.00000000            566            523            227            -72
   6988.00000000            185           -108            216            -67
   6992.00000000           -151           -110            130            212
   6996.00000000            192           -136           -379           -132
   7000.00000000            180            491            240            -28
   7004.00000000           -114            129            -11           -177
   7008.00000000            221           -228            -63           -502
   7012.00000000             70             77            170           -244
   7016.00000000            113            265            -29             24
   7020.00000000           -380            -94            177           -302
   7024.00000000            -13            716             16           -159
   7028.00000000           -554           -125            -10             71
   7032.00000000            369            203            192           -543
   7036.00000000            -27             77           -405            252
   7040.00000000            -17           -186            -65            -27
   7044.00000000           -141            -49            -86            -94
   7048.00000000           -506           -208            -35           -116
   7052.00000000             15            210            100            194
   7056.00000000            165            258            111           -270
   7060.00000000            -25           -193             74            490
   7064.00000000              1            404           -540           -132
   7068.00000000           -117            -95             90           -130
   7072.00000000            -18           -143            196              1
   7076.00000000            268             72            532            -96
   7080.00000000            302              7           -395            442
   7084.00000000            436            232             -5            327
   7088.00000000           -106            251            -27           -145
   7092.00000000           -293              5           -113            149
   7096.00000000           -215           -319           -101            270
   7100.00000000            106            -59            -49            -67
   7104.00000000            -34            -11            310            170
   7108.00000000              9           -119           -131            134
   7112.00000000             39            -15             -4           -210
   7116.00000000            -44            -64            178           -128
   7120.00000000            186            143            -47            106
   7124.00000000            -48           -193           -189            108
   7128.00000000            127             18             -6             17
   7132.00000000             32            -17            -64            203
   7136.00000000             -9            196           -420             62
   7140.00000000            136            444            -33            311
   7144.00000000            142             16             90           -247
   7148.00000000            176            -85           -133           -193
   7152.00000000            -92             40            138            -90
   7156.00000000            217             23            240           -110
   7160.00000000            -16           -200            -36            335
   7164.00000000             66           -102            197            -37
   7168.00000000            330           -104            182           -320
   7172.00000000           -168            -62           -203             84
   7176.00000000            158           -144           -354            134
   7180.00000000            112            195            126             35
   7184.00000000           -170             90           -254           -429
   7188.00000000           -271            109            -16             17
   7192.00000000            145            211            257            117
   7196.00000000            -24            -47            -25           -361
   7200.00000000           -208            -89              4            -54
   7204.00000000            130           -505            -32             31
   7208.00000000            -69            232           -110              4
   7212.00000000            198           -112            149           -211
   7216.00000000            322           -100            -51             65
   7220.00000000            261           -104            288            224
   7224.00000000           -130            -78           -263             12
   7228.00000000            318            -68           -257             99
   7232.00000000            -66            313             42            148
   7236.00000000             19            117             21            -64
   7240.00000000            -43           -101             55            -29
   7244.00000000           -107            216             26           -155
   7248.00000000            165            344             53           -192
   7252.00000000              1           -145            174             70
   7256.00000000            -83             25             -6            102
   7260.00000000            111            -45             -2             37
   7264.00000000            -95           -234           -141            129
   7268.00000000            155           -208            -41            210
   7272.00000000            123           -314             13             81
   7276.00000000            -65             16              3            220
   7280.00000000            266            -94           -358            164
   7284.00000000            175            -43            139           -109
   7288.00000000           -170            355            -73            161
   7292.00000000            411            -91            166            -78
   7296.00000000            217             20           -132           -231
   7300.00000000             24            135            178            -99
   7304.00000000            -91            211             88           -187
   7308.00000000            118            188            -58           -166
   7312.00000000             -6           -165             75           -346
   7316.00000000           -120            -55            -45            -88
   7320.00000000           -124             38           -222           -214
   7324.00000000            323             17            -28           -106
   7328.00000000             62           -138            169            135
   7332.00000000             -5            196             58            395
   7336.00000000            212            -42            -49            -60
   7340.00000000           -102            -10           -177             96
   7344.00000000           -139            310            144            -42
   7348.00000000            120           -208           -242            -72
   7352.00000000           -110           -266             62           -153
   7356.00000000             55             -6             48            174
   7360.00000000           -202            186             35            129
   7364.00000000            287            143            117           -196
   7368.00000000           -327           -101            -83             -2
   7372.00000000            120           -206             41           -238
   7376.00000000             19           -341            -88            214
   7380.00000000            267             -8            -17            119
   7384.00000000             31            -74            196            152
   7388.00000000            168            104           -155             17
   7392.00000000            170            -27            -84            -31
   7396.00000000            111           -114           -104            115
   7400.00000000            142           -109            -84            -73
   7404.00000000           -185           -229           -141           -113
   7408.00000000            179             -7           -253           -225
   7412.00000000            -55            250              6           -180
   7416.00000000            237             84            158            -31
   7420.00000000           -129             78             73            191
   7424.00000000           -127            -11            224           -136
   7428.00000000            -68             49            -18           -119
   7432.00000000             39            214            -35             66
   7436.00000000           -157             58            -30            -58
   7440.00000000             34            286            137             27
   7444.00000000             34            165            -98            119
   7448.00000000            235            140            -17             42
   7452.00000000            -15            125            179            -55
   7456.00000000            -64            134            -95            229
   7460.00000000             24            145           -116             27
   7464.00000000            104             83             -7             24
   7468.00000000           -153            -57            115             37
   7472.00000000             29             47            -34            254
   7476.00000000           -228           -244            -37           -130
   7480.00000000           -202             64             -7             56
   7484.00000000            168            -99              8             24
   7488.00000000             63           -264             32             73
   7492.00000000           -132            155            -49             74
   7496.00000000            157           -130           -298            -20
   7500.00000000            -43           -181            -22           -131
   7504.00000000            -50              3           -280            -76
   7508.00000000            246            -42            161             31
   7512.00000000             31            141             31             87
   7516.00000000            -15           -160           -103            -94
   7520.00000000             91            -55            232             20
   7524.00000000           -101             38            -19             16
   7528.00000000             75            -64            -89             87
   7532.00000000            -42            -87            310              5
   7536.00000000             64             31             77            115
   7540.00000000             21            -94            145           -120
   7544.00000000            228            -23             -3             32
   7548.00000000             30            282            -43            207
   7552.00000000           -269           -136            113           -100
   7556.00000000             -0            -32            142             74
   7560.00000000           -101           -106             37             97
   7564.00000000             56            -21            -21            117
   7568.00000000           -232            -38           -212             45
   7572.00000000             55            112            117            -57
   7576.00000000            107            -77           -172            -31
   7580.00000000             33             63             -9             90
   7584.00000000            -95            -27            -44            -24
   7588.00000000            -26             31            -87             96
   7592.00000000            -39            -84            -96             38
   7596.00000000             80            -94           -321            -85
   7600.00000000             65             83             62           -134
   7604.00000000              2            -37             24           -109
   7608.00000000            120            -96             94              4
   7612.00000000           -121           -151             21            -42
   7616.00000000           -185             -1            -59             20
   7620.00000000             93             26             12             46
   7624.00000000             87             72            -30           -119
   7628.00000000           -176              8             52            -88
   7632.00000000             37            -11             24            -70
   7636.00000000            -22            -62             13            -41
   7640.00000000             16            -85            228             44
   7644.00000000           -123           -103             10             43
   7648.00000000            -84             80           -148             48
   7652.00000000            -44            -28           -214           -311
   7656.00000000           -100            -12             48            -33
   7660.00000000             46            179            -23           -151
   7664.00000000            -88            -92             11            -81
   7668.00000000            -85            -72            178           -140
   7672.00000000             86            -49            -95            -57
   7676.00000000            135             89            -35            -62
   7680.00000000            195             76            -30              0
   7684.00000000             15            -12             63            -42
   7688.00000000             76            -54            119            -76
   7692.00000000             48             80            114            161
   7696.00000000             85            184             84            -26
   7700.00000000             15              5             69             30
   7704.00000000            110             51             81           -119
   7708.00000000            -30            105            -48            104
   7712.00000000            -43             63              2             72
   7716.00000000            -56            -58             79             31
   7720.00000000             31            206           -104             92
   7724.00000000            -41            173              6             41
   7728.00000000             62            -64            -99             35
   7732.00000000           -133             -1            -33            116
   7736.00000000             -9            -20            -41            -73
   7740.00000000            -47            -63             18            -55
   7744.00000000            108            129            -24             95
   7748.00000000            144           -123              4             75
   7752.00000000            -24            -41           -154             47
   7756.00000000            -66             35            -31            -42
   7760.00000000            -69            -76              7           -174
   7764.00000000             10            -58            -86             52
   7768.00000000            -59            -82            -99            -74
   7772.00000000             13             36            -84            -21
   7776.00000000             14            -11            161            -32
   7780.00000000             -1            -19             63            -72
   7784.00000000            -49             90            -31              6
   7788.00000000           -115             88            -92            -30
   7792.00000000           -207            129             17            -40
   7796.00000000              1             54             70             66
   7800.00000000             86             38            -51            150
   7804.00000000            -50            -47            -71              1
   7808.00000000           -134            -22            -35           -192
   7812.00000000            -88           -132            -77            103
   7816.00000000             77             53           -106             50
   7820.00000000             51              2            -91             88
   7824.00000000             94             35             -8             28
   7828.00000000             33            101            -29            -46
   7832.00000000            -88            -24              9            -53
   7836.00000000            -17             85             20            -90
   7840.00000000             58            -29             57             59
   7844.00000000             -3            -77             22            -61
   7848.00000000            -97             13              0             79
   7852.00000000            -43             42            -51             12
   7856.00000000             61             62             42            -35
   7860.00000000            -34            -28            -87            106
   7864.00000000            -39             21             56             25
   7868.00000000            115             38              4           -131
   7872.00000000             54            -10             -9            106
   7876.00000000             -4            -39            -10            -86
   7880.00000000            117             34            139           -132
   7884.00000000             81            -12            104            -40
   7888.00000000            -33             55            -95            -97
   7892.00000000             -6             28            -48            -87
   7896.00000000             23            -64             35           -136
   7900.00000000            -47            -53             35             86
   7904.00000000            -18             69             26           -150
   7908.00000000            102             27            -89            -22
   7912.00000000            -17             46            -28            -11
   7916.00000000           -108            -65             11            -41
   7920.00000000            -25              3           -196            -94
   7924.00000000           -109            -13            -51            -88
   7928.00000000            -78            -29            -10             62
   7932.00000000            -60            -59              2             24
   7936.00000000             -2            -38             47           -116
   7940.00000000            -59            -81             44            -72
   7944.00000000             24            -52             -4           -100
   7948.00000000           -120            142             51              3
   7952.00000000             27            -44            -77            -35
   7956.00000000             14            -29             58            -72
   7960.00000000            -62            -37            -26            -32
   7964.00000000             42             16             55            -28
   7968.00000000            -61              2            -24            -30
   7972.00000000             52             77            110             20
   7976.00000000            -33            -80             61             21
   7980.00000000             53             89             34             31
   7984.00000000             -4              0            -14            -82
   7988.00000000              3             54             66             78
   7992.00000000              8             11           -130            -79
   7996.00000000             25            -91            -13             -7
   8000.00000000            -48            -22             50             19
   8004.00000000            127            -48            -38            115
   8008.00000000            -34             32             56            -15
   8012.00000000            -56             76             43            -35
   8016.00000000             -7            -14             99            112
   8020.00000000             25              1            125             -8
   8024.00000000             -1             72             85             75
   8028.00000000            -46            102              6            107
   8032.00000000             39             24            -47           -111
   8036.00000000             42             53             25            -46
   8040.00000000            -35            -13             40            -64
   8044.00000000            -91             40            136             94
   8048.00000000             56             41            -43             56
   8052.00000000             44            -50            -11            -69
   8056.00000000            -86             -8             14              9
   8060.00000000            -31             55             15             42
   8064.00000000           -111             67            -13            -15
   8068.00000000            -24            -46             50            -39
   8072.00000000              4             84           -110            -32
   8076.00000000             45            -73             78            -83
   8080.00000000            -69             -8            -53            -49
   8084.00000000             96            -92             14             -2
   8088.00000000             19            -30             -5            -41
   8092.00000000             81             48            -65            -28
   8096.00000000            -58            -41             -6            -52
   8100.00000000              4             39           -131            -19
   8104.00000000            -13             31              0             29
   8108.00000000            -37             40            -49             -4
   8112.00000000            -14            -37            -41           -101
   8116.00000000            -47             44             51             13
   8120.00000000            -43             81             43             82
   8124.00000000             -3            -20             71            -64
   8128.00000000            103             60            -56             77
   8132.00000000             47            -58            -50             46
   8136.00000000             20            -20             76            -24
   8140.00000000             56              7             40             24
   8144.00000000             92             60             13            -51
   8148.00000000             21            -97            -57             63
   8152.00000000            -68             23             19             -2
   8156.00000000             36             26             24            144
   8160.00000000             72              9             80            -16
   8164.00000000            -49             -7            -48             37
   8168.00000000            -15             29            -49              3
   8172.00000000              2             35             87             58
   8176.00000000             37             23            -72             72
   8180.00000000             -2            -12            -30              1
   8184.00000000             29             12             -7             56
   8188.00000000            -59            -56            -24             34
##END NTUPLES=NMR FID
##END=
