##TITLE=NMReady_API_1H_20260629_001
##JCAMP-DX=5.01 $$ Nanalysis NMReady v2.2.5.1
##DATA TYPE=NMR FID
##DATA CLASS=NTUPLES
##ORIGIN=Nanalysis Corp.
##OWNER=Nanalysis
##LONG DATE=2026/06/29 15:24:20-0400
##SPECTROMETER/DATA SYSTEM=NMReady 60/nanalysis-X542
##INSTRUMENTAL PARAMETERS=^1H
##TEMPERATURE=32.995328
##PRESSURE=1.000000  $$ Bar
##RESOLUTION=0.00001999999949
##SAMPLE DESCRIPTION=None
##.OBSERVE FREQUENCY=60.55124547760931
##.OBSERVE NUCLEUS=^1H
##.SOLVENT NAME=Toluene
##.ACQUISITION MODE=SIMULTANEOUS
##.SHIFT REFERENCE=INTERNAL, Toluene, 4096, 5.00000000000000
##.SOLVENT REFERENCE=5.00000000000000
##.PULSE SEQUENCE=1DPULSEACQUIRE
##.DELAY=(0.000000,0.000000)
##.FIELD=1.422209  $$ Tesla
##.OBSERVE 90=15.789399
##.ACQUISITION TIME=6.55279983446235
##.ZERO FILL=0
##.AVERAGES=16
##.DIGITISER RES=16
##.SPINNING RATE=0.000000
$$##.PHASE 0=-20.00000000000000
$$##.PHASE 1=79.00000000000000
$$ NMReady specific parameters
##$SCANS=16
##$SCAN DELAY=1.000014
##$TOTAL DURATION=125.353252
##$X_PULSE=14.210050
##$RECVR_GAIN=12
##$SWEEP WIDTH=20.000000
##$RELAXATIONDELAY=1.280964
##$ZEROING=7.000000
##$APODIZATION=0.030000
##$PHASECORRECTION=-20.000000,79.000000
##$PIVOT=0.000000
##$DT=0.000020
##$LOCKOFFSET=2.080000
##$SPECTRALCENTER=5.000000
##$DECIMATION=40
##$LOWESTF2=-322.243788
##$T2NUCLEUS=1H
##$PULSE_AMPLITUDE=17.500000
##$PLOTTYPE=1D
##$INTEGRALS IS MANUAL=False
##$EXPERIMENT_SETTING_Apodization=0.03
##$EXPERIMENT_SETTING_Decoupling Mode=Off
##$EXPERIMENT_SETTING_Digital Resolution=0.02 Hz
##$EXPERIMENT_SETTING_Dwell Time=0.50 us
##$EXPERIMENT_SETTING_NPoints (Complex)=8192
##$EXPERIMENT_SETTING_Nucleus=1H
##$EXPERIMENT_SETTING_Pulse Width=14.21 us
##$EXPERIMENT_SETTING_Receiver Gain=12.00 dB
##$EXPERIMENT_SETTING_Scans=1
##$EXPERIMENT_SETTING_Solvent=Toluene
##$EXPERIMENT_SETTING_Spectral Center=5.00 ppm
##$EXPERIMENT_SETTING_Spectral Width=20 ppm
##$EXPERIMENT_SETTING_TX Frequency=60.551308 MHz
##$EXPERIMENT_SETTING_Time Per Scan=7.8 sec
##$EXPERIMENT_SETTING_Zero Filling=7
##$RDC_ENABLED=1
##$RDC_TYPE=CONT5PAR
##$RDC_DATA=(0.136678,3.897876,2.079326,0.689996,1.043959)
$$ End of NMReady specific parameters
$$ Bruker specific parameters
$$ --------------------------
##$DATE=1782761060
##$SI= 65536
##$TDeff= 8192
##$SFO1= 60.55124547760931
##$O1= 302.75622738804651
##$SF= 60.55094272138192
##$BF1= 60.55094272138192
##$AQ= 6.55279983446235
##$SWH= 1250.00003157765696
##$SW= 20.64367168202813
##$SR= 0.00000000000000
##$OFFSET= 15.32191245070819
##$FIDRES= 0.15258789447969
##$O1P= 5.00000000000000
##$TD= 16384
##$DW= 399.99998989515007
##$SPECTYP= PROTON
##$NS= 16
##$DS= 0
##$DR= 16
##$DE=1.000014
##$RG=12
##$P1=14.210050
##$P= (0..2)
0.0 14.210050
##$PHC0= 59.50000000000000
##$PHC1= -79.00000000000000
##$PH_mod= 1
##$WDW= 1
##$LB= 0.02999999932945
$$ End of Bruker specific parameters
$$ ---------------------------------
##NPOINTS=8192
##DELTAX=0.0008000000
##NTUPLES=NMR FID
##VAR_NAME=TIME,FID/REAL,FID/IMAG,PAGE NUMBER
##SYMBOL=X,R,I,N
##VAR_TYPE=INDEPENDENT,DEPENDENT,DEPENDENT,PAGE
##VAR_FORM=AFFN,AFFN,AFFN,AFFN
##VAR_DIM=8192,8192,8192,2
##UNITS=SECONDS,ARBITRARY UNITS,ARBITRARY UNITS,
##FIRST=0.000000,1161.721908,268.395198,1
##LAST=6.552800,-0.000001,-0.000000,2
##MIN=0.000000,-974.108261,-848.913852,1
##MAX=6.552800,1161.721908,965.938642,2
##FACTOR=0.00079999997979030013,0.00000054096908257230,0.00000054096908257230,1
##PAGE=N=1
##DATA TABLE= (X++(R..R)), XYDATA
      0.00000000     2147483000     1436741968     -300832352    -1570734155
      4.00000000    -1800672705    -1149376050     -244781935      487178161
      8.00000000      896766328      965087449      661344306      170439128
     12.00000000     -161851054     -175541296     -119375643     -340559844
     16.00000000     -823622354    -1065721745     -607367424      438255829
     20.00000000     1409165951     1654435700     1022151564     -104727458
     24.00000000    -1129379542    -1576719196    -1277591881     -412453676
     28.00000000      555896712     1113749375     1025121126      477254796
     32.00000000      -75617728     -287580479     -187714357      -86990717
     36.00000000     -234426348     -563656201     -737090639     -458241703
     40.00000000      239235209      977325875     1286275857      922031946
     44.00000000       40660239     -894617950    -1371745983    -1141785271
     48.00000000     -351371132      532335405     1021353102      907327182
     52.00000000      378703385     -158808884     -379663970     -273874935
     56.00000000      -89484536      -80737845     -274780472     -454427005
     60.00000000     -354225446       87552161      655336083      973695767
     64.00000000      779594261      114203012     -670813281    -1124904497
     68.00000000     -976288746     -316185408      462121799      906632158
     72.00000000      812674867      324054119     -188698590     -420516029
     76.00000000     -323193253     -105339037       -3864551     -103279393
     80.00000000     -260845801     -260823555        9828725      429170047
     84.00000000      724540730      637960476      146416689     -506463504
     88.00000000     -926206268     -846392939     -297459858      385150749
     92.00000000      803235823      744750950      314645243     -178962877
     96.00000000     -439404292     -381389521     -143687408       37234555
    100.00000000       28744432     -109753260     -182531601      -42380316
    104.00000000      275028824      541112685      522595253      153487641
    108.00000000     -373986636     -747343609     -718699076     -293570128
    112.00000000      291680122      693506549      692297552      322836028
    116.00000000     -155229173     -443380010     -409184455     -164109368
    120.00000000       62198770      101520712      -13002223     -117849522
    124.00000000      -60714509      157815621      384686763      420082493
    128.00000000      174569004     -250728944     -599679154     -634984558
    132.00000000     -299445618      215967314      603704454      635623486
    136.00000000      319682555     -126984452     -418139541     -416136785
    140.00000000     -184238134       65635833      154109871       58978462
    144.00000000      -75947685      -84794594       79161247      285536276
    148.00000000      350599591      169544746     -176043582     -481607518
    152.00000000     -539917303     -289241379      145705984      507758330
    156.00000000      579301541      319368022      -90308359     -385247645
    160.00000000     -404980855     -196236424       51241730      161891770
    164.00000000      106057319      -15871954      -68195980       13329157
    168.00000000      171776956      268632833      182081773      -82384646
    172.00000000     -372623942     -479002448     -292568117       90411111
    176.00000000      433296827      520296668      308907443      -51688564
    180.00000000     -333524538     -388236931     -221928424       20423398
    184.00000000      172617120      157112934       31523898      -67543535
    188.00000000      -40176574       92856975      209317075      178889637
    192.00000000      -22189318     -277024107     -404240771     -290754418
    196.00000000       20262936      345111479      474438709      326092805
    200.00000000       -4922334     -302046860     -388827031     -240376553
    204.00000000       11820587      188975093      191447294       61729530
    208.00000000      -65235905      -77834895       31915046      158456398
    212.00000000      169105014       16207905     -212990015     -348167359
    216.00000000     -270068908       -3704088      290750611      421764012
    220.00000000      307888108       22964873     -256738938     -366729186
    224.00000000     -256471043      -22851663      173678269      214610296
    228.00000000      106127636      -39485236      -92372916      -19356057
    232.00000000      100901230      141216237       39243469     -147411582
    236.00000000     -279007873     -240526430      -29339066      231648609
    240.00000000      372546343      296439857       44935442     -226230231
    244.00000000     -353298045     -268399866      -44051334      164415247
    248.00000000      231253303      142798663       -5165099      -91311104
    252.00000000      -60140707       39559486      102006955       51883127
    256.00000000      -89865298     -216834206     -214061785      -51205784
    260.00000000      180286039      325459323      278635800       62444035
    264.00000000     -191642718     -322768887     -262165232      -62386514
    268.00000000      141970904      230502529      167606468       22632938
    272.00000000      -91429211      -96805087      -11343929       73050355
    276.00000000       64875054      -40575649     -158439628     -177670434
    280.00000000      -60356258      128204434      262454749      245022699
    284.00000000       76262798     -143180875     -281117502     -252990478
    288.00000000      -80361969      122878669      228086296      180583575
    292.00000000       34705714      -92192522     -115821828      -42931556
    296.00000000       46131202       66889453        -504445      -95122903
    300.00000000     -134199447      -66932438       75363999      198156627
    304.00000000      208179979       81652074     -109490375     -239833979
    308.00000000     -224843187      -75876126      106258628      207396571
    312.00000000      174091416       46094990      -80220880     -128440916
    316.00000000      -81641154       10648427       68498739       46309838
    320.00000000      -34492754      -97028573      -74080973       32338944
    324.00000000      144192750      168061263       73145346      -83610192
    328.00000000     -195420594     -189195402      -71225735       85290748
    332.00000000      186542172      174434097       61643465      -76606158
    336.00000000     -147880796     -112511742       -7359722       77536613
    340.00000000       77484229        4194777      -68693071      -68204942
    344.00000000        7130161       96050030      124082349       63030289
    348.00000000      -52922492     -149138521     -161516043      -73192745
    352.00000000       66258031      170234341      170753022       63040189
    356.00000000      -74930279     -150331081     -117766480      -16025222
    360.00000000       69715008       81824482       27609439      -34656346
    364.00000000      -54542446      -13454036       49396514       87720117
    368.00000000       60863403      -24245363     -113689283     -139927730
    372.00000000      -74086213       50727571      149940545      154645794
    376.00000000       62255551      -63335998     -134081180     -115159400
    380.00000000      -31296313       53703626       83123865       51235655
    384.00000000       -8706999      -47453811      -34549817       18422985
    388.00000000       64804120       59460976       -4287167      -85405441
    392.00000000     -119355866      -70433367       34554017      125964432
    396.00000000      137150228       63571777      -46426483     -120650611
    400.00000000     -116994039      -45727297       42479390       88961473
    404.00000000       70829607        8513203      -45071753      -48956064
    408.00000000       -5390529       46516446       56428820        9593062
    412.00000000      -59719508      -96406834      -64675803       19884433
    416.00000000       99939600      121837754       63559793      -33180110
    420.00000000     -107933528     -113617074      -51497815       36405060
    424.00000000       89708716       78957802       19419621      -39411619
    428.00000000      -57296237      -25592093       26304830       49903763
    432.00000000       23879053      -33230279      -74719382      -61499660
    436.00000000        4841543       76978433      104399668       63119056
    440.00000000      -20339019      -91173113     -104946918      -53287587
    444.00000000       26101222       82760639       81848254       29556307
    448.00000000      -33328663      -61459943      -39482501       10549575
    452.00000000       44243935       34326010      -10129293      -52777703
    456.00000000      -54200790      -11010380       52108435       84721997
    460.00000000       60215654       -6726336      -74951872      -96477995
    464.00000000      -55420095       17307321       76850377       81649933
    468.00000000       36400066      -27239762      -62398806      -48769340
    472.00000000       -2764342       38581877       42418748        7321481
    476.00000000      -35011278      -49663733      -19610994       31080099
    480.00000000       66689137       54877694        2749865      -57286615
    484.00000000      -79817451      -52693425        9372920       64367513
    488.00000000       77124843       40541324      -19258274      -60320193
    492.00000000      -57743021      -15620457       29915286       46685826
    496.00000000       22984498      -17556694      -39696099      -25292586
    500.00000000       14538442       47220071       46213292        9098933
    504.00000000      -40980677      -65328907      -47624994        2803751
    508.00000000       53849558       70236158       43601241      -10091922
    512.00000000      -53879500      -59017570      -25082312       19545558
    516.00000000       43330175       31664437        -607835      -28188446
    520.00000000      -27748535       -1571110       27903057       36015307
    524.00000000       13682399      -23921730      -50351160      -43419192
    528.00000000       -4538559       40183730       62417088       44427818
    532.00000000        -635431      -46649482      -58583634      -33258212
    536.00000000       11199395       40301398       37533634       10049133
    540.00000000      -18706477      -27133967      -10621731       13991950
    544.00000000       25397046       15377621      -12094807      -35292386
    548.00000000      -36248802       -9095521       29674400       52206229
    552.00000000       39933469        1316580      -39565745      -52911924
    556.00000000      -32932060        5931361       35723523       38592537
    560.00000000       19107402       -9655945      -23629692      -20837511
    564.00000000        -945396       17777559       17197389        -181341
    568.00000000      -22093948      -27067306       -9374705       18279601
    572.00000000       36971308       31022848        2669607      -26546836
    576.00000000      -41989454      -29263141        -535941       28470206
    580.00000000       37359205       22403737       -3867817      -24739650
    584.00000000      -24551922       -7628496       11407694       16721352
    588.00000000        7065890       -9566298      -16844050      -10957323
    592.00000000        7557489       22769691       24019542        6965575
    596.00000000      -17156903      -32300321      -27181056       -2549727
    600.00000000       21589022       32945739       21547139        -306150
    604.00000000      -19468643      -24176595      -11531035        5009407
    608.00000000       14152848       11126355        -802390      -12581710
    612.00000000      -12534840         277005       15024150       20217562
    616.00000000        9177450      -10886768      -24698658      -23230737
    620.00000000       -5257175       15216417       25965678       19833336
    624.00000000        3299035      -12726031      -20142530      -14642574
    628.00000000        -567157       11806876       12972008        4925392
    632.00000000       -7446710      -10990287       -2687483       10179276
    636.00000000       15128102        8116609       -5826636      -16674767
    640.00000000      -17930507       -7275809        8509151       18625510
    644.00000000       19198992        8017943       -8480060      -18455295
    648.00000000      -16141119       -3468604        8686867       13125543
    652.00000000        6664314       -3461176       -8738689       -4955463
    656.00000000        3729180        9894605        7142780       -1577495
    660.00000000      -11764192      -15003866       -9063190        4000260
    664.00000000       15959836       18171268        8723751       -6712468
    668.00000000      -17905753      -16543922       -5947886        7100276
    672.00000000       13545610        9784492         954982       -6104237
    676.00000000       -6650505       -1005188        5473681        6027211
    680.00000000        1521193       -7114519      -11747564       -7684583
    684.00000000        2486880       13190043       15671988        8124781
    688.00000000       -4980647      -15285030      -15946271       -8025709
    692.00000000        4267732       12238674       11812220        3494766
    696.00000000       -5564613       -8048329       -3553750        1788941
    700.00000000        5415264        1855332       -3907116       -7851121
    704.00000000       -6060988         442844        9291154       13249210
    708.00000000        8389182       -1558850      -13044857      -15745975
    712.00000000       -9164790        2272330       11193301       12938037
    716.00000000        7691861       -1844515       -7173460       -7045744
    720.00000000       -2233762        1523509        4644976        -291371
    724.00000000       -4803507       -5519793        -790196        7520654
    728.00000000       11415429        9645207        -696926      -10249272
    732.00000000      -15832141       -9262828          95915       10393083
    736.00000000       14371125        8982717          62979       -7662457
    740.00000000       -9104709       -4334992        1772074        4582087
    744.00000000        3132767       -1930903       -4475623       -2964818
    748.00000000        4273846        9056326        8771742        1390503
    752.00000000       -9629739      -13124097      -10644971        -758558
    756.00000000        9526869       14232721        9562810         -52016
    760.00000000       -6598597      -10025814       -6709610         139623
    764.00000000        5356968        5362815         974787       -2960721
    768.00000000       -3252901        1694742        6157991        6975889
    772.00000000        1603833       -6756890      -11337662       -9924154
    776.00000000       -2317002        7192779       13396900       11152420
    780.00000000        3031890       -5728385      -11992437       -8434617
    784.00000000       -1916502        5068121        6217882        3223150
    788.00000000       -1197094       -3056579        -561484        3645855
    792.00000000        5870221        3307538       -3499898       -9339275
    796.00000000       -9092655       -3031356        5140973       12567704
    800.00000000       11091496        3441930       -4864716      -10674480
    804.00000000      -10443563       -3860684        3552504        7592886
    808.00000000        5968072         947955       -2609227       -2080658
    812.00000000         936347        3330526        2766676       -2136962
    816.00000000       -6946286       -7441672       -3143262        4307832
    820.00000000       10607447        9433512        4093408       -3794233
    824.00000000      -10487794      -10384597       -4442344        3199015
    828.00000000        7754095        7338393        2270280       -1936569
    832.00000000       -3128781       -1362372        1195625        1619234
    836.00000000        -516463       -3081775       -4416011       -2047501
    840.00000000        2307984        7128186        8320842        4177821
    844.00000000       -3149589       -8653787       -9380935       -4877319
    848.00000000        1969654        7114267        7260371        3533747
    852.00000000        -943946       -3487127       -3932730       -1512925
    856.00000000         338932        1061535       -1625005       -2290475
    860.00000000        -869415        1906421        5101669        5779094
    864.00000000        2969051       -2058970       -6671576       -6869053
    868.00000000       -4026440        1042069        6861698        7957804
    872.00000000        3536329        -459383       -3639267       -4454084
    876.00000000       -2381113        -321234        1843708        1183580
    880.00000000        -235994        -924181         925263        2764599
    884.00000000        3640506        2546015       -1312339       -4594607
    888.00000000       -5121376       -3596097         304484        4384628
    892.00000000        5757687        3512371        -135300       -3424746
    896.00000000       -4773337       -2509972        -915591         935215
    900.00000000        1425985         896016         313652         556220
    904.00000000         777254        2466684         904645        -495658
    908.00000000       -2805405       -3768512       -2485057         639826
    912.00000000        3815355        4216973        2898764         644809
    916.00000000       -2344894       -3585116       -3039431       -1016037
    920.00000000        1715336        1859544        1320735         346128
    924.00000000          67786         -83112         713146        1168729
    928.00000000         -57056       -1543632       -1894922       -1391652
    932.00000000         409422        1711094        2594333        2591323
    936.00000000         583620        -911810       -3024048       -2423038
    940.00000000        -234303        1794520        1760439        1284155
    944.00000000        -248462        -283055        -873694         206552
    948.00000000         280162         119280        -829344       -1251232
    952.00000000       -1839296        -186613         658790        1891325
    956.00000000        1497709         528239       -1240993       -1905407
    960.00000000       -1179976        -316704         -31928        1015617
    964.00000000        1375950         468705        -584256        -239545
    968.00000000        -932095        -394728          38040        -384773
    972.00000000        -637300        -345942        -242594         270177
    976.00000000        1322893         964436        -369829        -939762
    980.00000000       -1157695       -1559936         -44001         843562
    984.00000000        1146316        1181956         238946        -305396
    988.00000000        -632144        -480864        -265160         629483
    992.00000000        -381160           2666         -56000        -254695
    996.00000000         635348         131531         578778          93238
   1000.00000000        -315440       -1403926       -1129867        -648278
   1004.00000000        -144662         890532         955604         595383
   1008.00000000        -363315        -842620        -243280        -679549
   1012.00000000          66777        -143457         -20017        -383406
   1016.00000000         186649        -290655         678707         445175
   1020.00000000         181487        -893679        -698884        -795674
   1024.00000000         197634         763614        1063753         933092
   1028.00000000        -157757         225613        -683827       -1107077
   1032.00000000        -503992        -603809          26200         169234
   1036.00000000        -199183        -103368         410445         581347
   1040.00000000        -101997        -631334        -843225        -924391
   1044.00000000       -1113018        -391122         468363         836395
   1048.00000000          79756         634029         198537       -1283568
   1052.00000000        -967298        -562102         -69296          37215
   1056.00000000          83049         679679         389813         198824
   1060.00000000        -291381         184868        -136764         -91592
   1064.00000000        -871162         -82284          50504         635999
   1068.00000000         213063         797913         347383        -300853
   1072.00000000        -969499       -1366146        -806296         174901
   1076.00000000         473756         754652          84709         692429
   1080.00000000         128944          97031        -220634         -92001
   1084.00000000        -421247         -73482        -385449        -207218
   1088.00000000         518179        1051201         631662         315964
   1092.00000000        -600904        -915029       -1186551        -425217
   1096.00000000         -41755         634060         577757        1332304
   1100.00000000         531408        -198304        -521856        -214474
   1104.00000000        -264489         279614        -299806        -309073
   1108.00000000         -96745         142738         689078         817762
   1112.00000000         299417        -667643        -466494        -882544
   1116.00000000        -987428         -98556        1322091        1013743
   1120.00000000         528268         -37505        -208281        -170208
   1124.00000000        -234239        -375719         161384          96497
   1128.00000000         -61455          93219          83273         612584
   1132.00000000         745100         776228          23353        -647798
   1136.00000000       -1018927        -660876         299981        1131288
   1140.00000000         845567         724440         230875        -294985
   1144.00000000        -781564        -594566        -388434         -46945
   1148.00000000         134620         110967         184339        1203488
   1152.00000000         679758         790769         193093          -2400
   1156.00000000        -625686       -1121155        -262519          27644
   1160.00000000         656922         953116         652447         697471
   1164.00000000        -163001        -233775         -78589          97539
   1168.00000000         473406         300889          62736        -123086
   1172.00000000         233223         280248          73883         229176
   1176.00000000        -145646         -50736        -602479        -114185
   1180.00000000          45698         616395         757806         262229
   1184.00000000         204326          41015          15320         -49720
   1188.00000000         220603         427773         306367         521588
   1192.00000000         370366        -266339         115138         617923
   1196.00000000        -401814        -165613         292236        -493183
   1200.00000000         256311         279347         963748         563756
   1204.00000000          28170         -94632         251000        -136940
   1208.00000000         -63296         160740         339503         304920
   1212.00000000         306476         564140         167769         380275
   1216.00000000         194124         419478         188908        -156239
   1220.00000000         537357         123881         -81154        -101665
   1224.00000000         249595          46115         -83521         -99460
   1228.00000000        -532274        -148987         328561         557261
   1232.00000000         155133         377800         190647        -171240
   1236.00000000         -71824        -250124        -142434         128714
   1240.00000000        -230104        -228723           9302        -232207
   1244.00000000          81516         151974         164889        -361284
   1248.00000000         404524         241064        -233678         174214
   1252.00000000         212107         -58786        -154581          11182
   1256.00000000         523436         145899        -113840        -242304
   1260.00000000         105900        -304509         -69544        -166816
   1264.00000000         284831         -18889         -21170         124192
   1268.00000000          87784         449681         299680         319772
   1272.00000000         298300         327145          33014          11138
   1276.00000000        -197109        -142139         244944        -170135
   1280.00000000        -249350         233572        -158884         271920
   1284.00000000        -491866        -430643          57066         -98184
   1288.00000000         328905        -166609         413696          24910
   1292.00000000        -120939         218293         401107         398447
   1296.00000000         583439        -119761          76743           3053
   1300.00000000         -44621          80895        -460331         -85885
   1304.00000000         374210        -186159         141709          78457
   1308.00000000         258678         263857          71917        -153892
   1312.00000000        -190752          -6532          72622        -151948
   1316.00000000          53435         288194          -8024         -62725
   1320.00000000        -193295         -28475        -491179            544
   1324.00000000           9455        -310208         459574         -22789
   1328.00000000         240741         136503          14766         -75409
   1332.00000000        -162924         103650          88232         -46880
   1336.00000000         -63244         213043        -186369         311218
   1340.00000000        -372813         108417        -560819         116796
   1344.00000000        -348820        -367039         -45856        -299106
   1348.00000000        -187933          -8675         220690          11772
   1352.00000000         150728         -75248         129557         -11907
   1356.00000000        -243363         115886          -7089         376900
   1360.00000000         -41179         405268        -105362        -510129
   1364.00000000         217847         389818        -244016          95414
   1368.00000000          13218        -187367          12257         209981
   1372.00000000        -225984        -245724        -111764        -208806
   1376.00000000         442260        -240731        -262996         -11427
   1380.00000000          29349        -163236         -21653        -317153
   1384.00000000        -260902         -82972        -483098        -106087
   1388.00000000         -28325          89720         406011         201270
   1392.00000000        -258765         161852        -465865          97679
   1396.00000000         184905        -311234          17786        -293071
   1400.00000000         173650         258574         -14045        -289293
   1404.00000000        -305227        -104666         -83827        -169802
   1408.00000000        -261802         158757         168612         -88205
   1412.00000000        -439912        -459206        -287211         190007
   1416.00000000         320655          68680        -193159         327387
   1420.00000000         233401        -159284         -23689         293323
   1424.00000000        -354214          59695        -275499         150992
   1428.00000000         214595        -138205        -173523         -33203
   1432.00000000         301919         -28739         110243          -5128
   1436.00000000          71483          19270         166254         131108
   1440.00000000          54267         249756        -205188         203644
   1444.00000000        -141733         299939          20305          51925
   1448.00000000        -488256         222181         159075        -128990
   1452.00000000          16383          87349         505237        -329530
   1456.00000000         139286         -32631        -204955         161650
   1460.00000000         176922        -279878         109589          58650
   1464.00000000         -57608        -265628        -106906         -49090
   1468.00000000        -250895        -176543         -65055          45369
   1472.00000000        -272966         -33080        -434269          -9941
   1476.00000000         470352         143065         286839         196286
   1480.00000000          10466         361955        -123730          37193
   1484.00000000        -109269         -67513         207588        -150615
   1488.00000000          70033          36390        -173346          83440
   1492.00000000          42687        -195393        -145388         200542
   1496.00000000         151859        -195940        -120473         406061
   1500.00000000         -88279         140094         173175         190144
   1504.00000000         -79056        -177861         404276        -186711
   1508.00000000         -62305          54179         118469        -130011
   1512.00000000         176050         217992         270885        -197677
   1516.00000000         145791         -45373         168065        -214801
   1520.00000000         -70000         -84689        -247968          25299
   1524.00000000          30189          35949         -27545         259597
   1528.00000000             60         -65648         -18781          96646
   1532.00000000         410376        -385261        -278459        -126912
   1536.00000000         -67607         455003         -62796         -58204
   1540.00000000         106581          30567          86981        -110207
   1544.00000000         -40407         -10828          63340           3927
   1548.00000000        -189770          18400          18097        -239093
   1552.00000000         120099         209698         -14057         169145
   1556.00000000        -149306        -192857         167874         175490
   1560.00000000         148389          70449         204217         -21650
   1564.00000000         -93176         383183         -51743          49596
   1568.00000000         -94563         243121          51598        -325161
   1572.00000000         274313        -677134          36557         148665
   1576.00000000         -69302         -51400        -191524         -72313
   1580.00000000         190582         201016         -33824        -333243
   1584.00000000         -98258         -48605          41262        -212326
   1588.00000000          30036        -216423        -164108         -70125
   1592.00000000        -205367          83898         101523          -6458
   1596.00000000          46769        -255461         316889         -15539
   1600.00000000         115304         183828          93407        -125912
   1604.00000000         148056          48495         118181        -479524
   1608.00000000        -114853        -133891         -76069         394733
   1612.00000000        -135769         170599        -303756          66501
   1616.00000000         105776        -154115        -150355          16956
   1620.00000000         -40976        -200947        -136243         -87368
   1624.00000000         389322         271282         193103        -114576
   1628.00000000        -264045         149996         -79758         -51544
   1632.00000000         -87840         184051          55595         274790
   1636.00000000          98128         -66569          43792         -68749
   1640.00000000        -162157         194389          57030         180601
   1644.00000000         -60187         205522         -84963         -18650
   1648.00000000         121401         -25107        -104662          80419
   1652.00000000        -306809        -146517          37369          95716
   1656.00000000        -121786         -81026        -308881         121669
   1660.00000000        -306283         -40761         -64250        -298942
   1664.00000000         -35075         178114        -295841         -17716
   1668.00000000          69726         139368         210753        -181110
   1672.00000000        -109007         -35329        -484129        -284042
   1676.00000000          46722        -107443          32605         125445
   1680.00000000        -122458        -211619        -352018        -129496
   1684.00000000         -24092        -417134         -94159        -303071
   1688.00000000        -230052         130416         -79923        -204442
   1692.00000000         -73063        -366085        -103065        -162036
   1696.00000000        -162785         -79992        -127654         155816
   1700.00000000         212487          43969         216969          56976
   1704.00000000          62445        -143033         137869          60565
   1708.00000000          54112        -117151        -138584        -130717
   1712.00000000        -288916         149476        -103230         -84570
   1716.00000000        -121419        -351690          -2493        -100743
   1720.00000000        -106224         -46980        -274074          16070
   1724.00000000         171861        -113881          54060         -34270
   1728.00000000          -1532          88025         106704          81062
   1732.00000000        -168063          47447          37313         -49636
   1736.00000000         118822        -160969         -49897         -80058
   1740.00000000        -261186          69895        -108203          25756
   1744.00000000         286331         139301         -45754         142731
   1748.00000000         160413         119296        -149333          53638
   1752.00000000         -59132         -81677         168062          79232
   1756.00000000         129198        -238391         192382           4399
   1760.00000000        -201848         -43854        -476090          11156
   1764.00000000          33345        -168629         231291        -121356
   1768.00000000          98497          63097          26560        -149977
   1772.00000000         333290        -183544          34906          42664
   1776.00000000        -121085          81579         -24590          16963
   1780.00000000         -56562          77390         216194        -108284
   1784.00000000          58148         155941          44174          36264
   1788.00000000          64827         -11144         179521         -87532
   1792.00000000         -84443          43186         -91464         -74042
   1796.00000000          91847         -43604        -205090         -39391
   1800.00000000          79384         -47638         -65458        -131742
   1804.00000000          91612         340028        -101123         -46573
   1808.00000000         -27114         130724         222836         -64448
   1812.00000000         236881        -128755          60097        -102681
   1816.00000000          41702         -64445         103914        -224944
   1820.00000000          24972        -128454          19107          -7077
   1824.00000000          11802         -12549         -32592        -120564
   1828.00000000          71583         190094           7926          11216
   1832.00000000          65133          74923          27780          42368
   1836.00000000        -234725         159337         -97331         132586
   1840.00000000          80307         -42099           8526         103136
   1844.00000000         225579         229636         -11340         113788
   1848.00000000          69676         314843         115519         124333
   1852.00000000         210687          88883        -151499          -5963
   1856.00000000        -114088         172403         -83557          -2039
   1860.00000000         -73547         209838         260383         -29378
   1864.00000000         105801          71882          -5243          83464
   1868.00000000         250595         -61866          20943         -69097
   1872.00000000         -52819         -81896         -26011         104878
   1876.00000000          74397         126766        -130271         -54400
   1880.00000000         206193         -81056         -59654         159536
   1884.00000000          20345         196992         127837         307470
   1888.00000000         258790         121853         121490          79903
   1892.00000000         250635         223181         -26718         -41172
   1896.00000000         149771         -61214          47596         337570
   1900.00000000        -116331          92849         -37282         118271
   1904.00000000         -17280         -47946          45149          99592
   1908.00000000          65201           8715         106293          24287
   1912.00000000         159659         -70446          51010         -17923
   1916.00000000          -7817          50289          68555         158838
   1920.00000000         -57094          78464         179148        -132932
   1924.00000000         -88699         -92262         218815          98239
   1928.00000000        -251098          66079         -32373         123362
   1932.00000000         128367          17071         -35320         115128
   1936.00000000         -31291          50838          34975            428
   1940.00000000          84812          90518        -130383         124253
   1944.00000000         -58271         156266          73300         -53611
   1948.00000000        -137674        -118555           -587         -93766
   1952.00000000         165695          21126         -26361         150848
   1956.00000000          -8650         139420        -227654        -134537
   1960.00000000          49069          75667         126883          61151
   1964.00000000         -87665         215034          63163         268174
   1968.00000000          51504          48819        -116723        -116298
   1972.00000000          23606          30836          52677         -19070
   1976.00000000         116356        -101047          91735         -25400
   1980.00000000         180500          23900         -24978          -2872
   1984.00000000          72280         194162         100473         100737
   1988.00000000        -101376          -8848         -84267         150901
   1992.00000000         162916         -68287          50062         -11425
   1996.00000000         -16017        -120669        -270046         -10754
   2000.00000000          -1274          -6569          92735        -103355
   2004.00000000         115509         -44495        -142363         124060
   2008.00000000         -18000         126571           3888         130498
   2012.00000000          18745         -51074         -80746         105638
   2016.00000000        -172827          55095         -97482         227636
   2020.00000000         -90064         -59205         147403          50897
   2024.00000000          67140         281139          73417          69290
   2028.00000000           8370         -95612          37215         125010
   2032.00000000         -30574          -4925          99627         105464
   2036.00000000         -52049         -42487         -67683        -103711
   2040.00000000        -135130         -21723           2761         -84999
   2044.00000000         -25715           7920          -2305          38800
   2048.00000000          54636         -67707        -125855         -94301
   2052.00000000        -210124         124668        -260120          -8791
   2056.00000000         -36024        -137351        -100758          54894
   2060.00000000          74096         -66950          -4842          24092
   2064.00000000          74002         155730          -5895          62932
   2068.00000000         178220        -138840          -9025         -34377
   2072.00000000         -65802         -14211          32585         -60689
   2076.00000000          61415         -27067        -165615         -32923
   2080.00000000          30370         -93770         -48954          38151
   2084.00000000           4900        -101235          46562         -96909
   2088.00000000          51709         -56962         -25809          78696
   2092.00000000         -52122          12695          51361         -39491
   2096.00000000        -100337           9754         -27628        -160308
   2100.00000000         -62080          22497         -16728          17510
   2104.00000000         -87767         -16219           4346         203547
   2108.00000000         -58542         125575        -134165          34845
   2112.00000000          20785         -69940         100805          52525
   2116.00000000         -53500           4246          17182        -104285
   2120.00000000          96550          53381        -142143         -69985
   2124.00000000           4778          40428         -65619         108473
   2128.00000000         -53316          -2847          27573        -110271
   2132.00000000        -104773         -68321          -3457         -76484
   2136.00000000         -13688         -13891          80445          32317
   2140.00000000        -135609        -231350         -75991         111803
   2144.00000000         -63507         -71990          20765          44187
   2148.00000000          36143         173117          15213         -98175
   2152.00000000          23409        -231657          18246         -40407
   2156.00000000         -41478         -44762         -47639         214576
   2160.00000000          -6521         -35101        -148802          95077
   2164.00000000          30255         -32367         -24899        -140933
   2168.00000000        -102230          27721         183200          13420
   2172.00000000          14624         -16635         -45935         -58547
   2176.00000000         -30051          34079          81206         -68393
   2180.00000000         102205         -59247        -138416         -81998
   2184.00000000          21179          10462         -54945          -5027
   2188.00000000         -51487          37245        -106334           8937
   2192.00000000          21218         -82226         -59579          22983
   2196.00000000          39805          87257        -102136           5198
   2200.00000000          92536          50471         -13131         -65457
   2204.00000000          33527          20679          66526         -43228
   2208.00000000          49452         -60914          53508          43438
   2212.00000000          50295          54877         -22346         -75165
   2216.00000000           9807         -53769         -34235          -2418
   2220.00000000         -21822         -78710           9438         -77447
   2224.00000000         -20541        -182013          31336          31835
   2228.00000000          63010         -92834        -103503            954
   2232.00000000           3375         -63490         -52175          -6879
   2236.00000000          77047          51358         -12745          55633
   2240.00000000          61656         -43957         -48542         -66333
   2244.00000000         106222          32274          69499          82560
   2248.00000000         -99937          85200         -69655         108315
   2252.00000000         -16406         -52680         -13828          42127
   2256.00000000          21662          -2371           9716          12611
   2260.00000000          75480         -27788          77760           4725
   2264.00000000         106472         -81444         -70302         -46536
   2268.00000000         -39489          30888          18716          13218
   2272.00000000          33221           7076         -78339         -61807
   2276.00000000         -29987          46009           2882         -96422
   2280.00000000          68146         -71630         -30563           7916
   2284.00000000         -92438          10784          61565         -16909
   2288.00000000         -46031          24405        -129278         -12395
   2292.00000000          22816          19679         -20894          50838
   2296.00000000         -44411          15347           4109         -19211
   2300.00000000          17123         -13198          33921          65460
   2304.00000000          33170           2599          60134           7545
   2308.00000000          34293         109315          63257          49047
   2312.00000000         -78287         -16060         -49586         -27706
   2316.00000000          54959         119176          30318         -40926
   2320.00000000          38548         127857         113872          86021
   2324.00000000         138522         -68273           6104          54104
   2328.00000000         120957         -20239          -7328         112909
   2332.00000000          76423         -10381         -64349         -70243
   2336.00000000          25973          55154         -34082         -12838
   2340.00000000        -139424           1467          40692         -71419
   2344.00000000           3501          80185          67545         -36667
   2348.00000000         -75531          17940         -13537          92319
   2352.00000000         -40300          72458          76970          58433
   2356.00000000         -69440          21182          -3336          84391
   2360.00000000          70809         -56237         -63384         -45543
   2364.00000000          30990          59287         -12517         -34683
   2368.00000000           4308         -47772        -133776           3915
   2372.00000000         -35591          19252          40328          44435
   2376.00000000         -15392          62206         150711          13349
   2380.00000000         -95192          57648          21147         -47340
   2384.00000000          44369          76596         -71570          26647
   2388.00000000          11708          -8315         -22076         -74523
   2392.00000000          20709          47392          25673         -98634
   2396.00000000          37746          49563          33468          30807
   2400.00000000          36525          55513          54566          78865
   2404.00000000          16012        -117230          64563          -6984
   2408.00000000          30873          25491          60217          26569
   2412.00000000         -10389         -95349          28458          49203
   2416.00000000         -27585         -25067         -18725         -15236
   2420.00000000         -60945          26866         -44940           2938
   2424.00000000         -42578          29917           8731         -26198
   2428.00000000           -397           1227          21025          53472
   2432.00000000          21655          -3801         -60956        -101003
   2436.00000000          32875          34439          19911         -62280
   2440.00000000          80301         -57877          44037         131615
   2444.00000000          45171          34590         -42840         -50813
   2448.00000000         -51931         -44422         -34418          52365
   2452.00000000          22758           9121        -158603          -7433
   2456.00000000          -5369          -6019           1967           1990
   2460.00000000         -66195         -37199         -54558         -93696
   2464.00000000         -51599          15842          24490         -54060
   2468.00000000          94595           2224          22674          22622
   2472.00000000           3838         -33689          23671          32837
   2476.00000000         -43092         -95412          74407         -76164
   2480.00000000        -104296           4145        -108515         -49789
   2484.00000000          12664          76452         -20908          11203
   2488.00000000          -2647         -47379         -20041          45088
   2492.00000000          91855         -29906         -53924         -35473
   2496.00000000          22470           7022           8052          43326
   2500.00000000         -48551         -87167         -53392           4554
   2504.00000000            701         -54919          10405         -52765
   2508.00000000          -7169         -56492         -72460          34797
   2512.00000000          42181         -16715           2904          10207
   2516.00000000         -55169        -109662           1758          43556
   2520.00000000          -6649         -18612         -39138           9112
   2524.00000000         -20808         -24187         -68009         -17503
   2528.00000000          49784         -40602          46023          -9845
   2532.00000000         -31858         -20998          59178           5271
   2536.00000000          24827           7121          93025         -74494
   2540.00000000         -69975           9911          -6029         -10003
   2544.00000000          34749          -3130          -9944          41151
   2548.00000000           6771          46519         -18435         -32377
   2552.00000000         -15750         -26492         -94531         -31773
   2556.00000000         -18252         -29421          51871          14599
   2560.00000000          -3011          -7828         -82503          63935
   2564.00000000         -28738         -67735          -4082         -68622
   2568.00000000          11361          42612         -30755           8898
   2572.00000000         -49396          12670          -2932         101401
   2576.00000000          28695          14136          65734         -74380
   2580.00000000          30285          54345          68373          21823
   2584.00000000         -15063         -21289          18323          48804
   2588.00000000          11546          40552          15335          13624
   2592.00000000          30888          38990          26902          27825
   2596.00000000          23349          64185          59900          78420
   2600.00000000          70640          54933         -24827          47728
   2604.00000000         -11559         -37805         -63760         -64898
   2608.00000000         -16891          14005         -21847           6566
   2612.00000000          70204          16156         -10552           9933
   2616.00000000          -6313          81498          19066         -43702
   2620.00000000           1179          60692          11031          27743
   2624.00000000         -54746         -28381          58472         -20682
   2628.00000000           8207          -6907          18464          -6957
   2632.00000000         -11994         -43340          -6511         -11115
   2636.00000000          55800          -6220          22759           7308
   2640.00000000          38868         -15772         -13377          17684
   2644.00000000           4703         -59445          10097          37276
   2648.00000000         -22468          15217           4593          27372
   2652.00000000          49068          32836          24430          37854
   2656.00000000          -7637          13979         -48163          -5523
   2660.00000000         -28456           6328         -16818         114823
   2664.00000000           6291          -6562          91019         -35363
   2668.00000000          17452         -32247          41383          -1020
   2672.00000000          44430          44816         -37872          10621
   2676.00000000           1297          53770         -33221         -11210
   2680.00000000          37718           3106          28461          16482
   2684.00000000         -35248           -165          -8486         -32184
   2688.00000000         -18919         -23068           5033         -60443
   2692.00000000         -20097         -15218          11679         -30251
   2696.00000000          16921          52374           1423            -43
   2700.00000000          43028         -20630          31325          19748
   2704.00000000          35726          26778          27416           4684
   2708.00000000           3864           -738         -11357           4966
   2712.00000000         -39525          26167          11652          59656
   2716.00000000          16422          -8573         -21033          25988
   2720.00000000           4706         -14546          44793         -14917
   2724.00000000          45950         -12776          44800          -3974
   2728.00000000          78050         -17447         -13593          58867
   2732.00000000          71752          33101          24697          16684
   2736.00000000           8893         -27653          26504          27199
   2740.00000000          11231           7784          43618          25931
   2744.00000000         -56480         -17350          11128          24838
   2748.00000000          29867          11006          28141         -12294
   2752.00000000          -5807         -15687         -11304           7067
   2756.00000000          26924          18912           4582          50994
   2760.00000000          11864          56307          26344         -37726
   2764.00000000         -30519           3777         -32688         -52778
   2768.00000000         -35881          10956         -20202          27053
   2772.00000000           6816          -2002         -25210          23933
   2776.00000000         -39815          15109         -26643         -43562
   2780.00000000          20165         -20242          46129         -29533
   2784.00000000           5012          -4253         -23624          26282
   2788.00000000         -16921           6398         -21920         -24844
   2792.00000000         -22930          23816              8            425
   2796.00000000         -10883         -11848          17589           1234
   2800.00000000            366          14006          28403          14527
   2804.00000000         -44697          -9288         -37084         -49675
   2808.00000000         -37602          42702           3905         -18372
   2812.00000000         -13779          30933         -26968          61599
   2816.00000000          19110          -5516          -3631          10695
   2820.00000000          54219          -3841         -73374          17860
   2824.00000000          31600         -66055         -16811          52654
   2828.00000000         -57213         -36518          -2151         -22182
   2832.00000000          12419          79574         -14464           7355
   2836.00000000         -64833          28463           9448           6775
   2840.00000000         -28529          -4901          13900         -39537
   2844.00000000           6328         -13243         -22133         -18665
   2848.00000000         -23908         -29657         -29077           -402
   2852.00000000          -3443           9026          11704           4377
   2856.00000000          -7699          11843         -26266         -10784
   2860.00000000         -13393         -26124         -31117           5498
   2864.00000000         -19336         -43691         -16869           7001
   2868.00000000          27719          33595          15381         -12478
   2872.00000000          11066          30435            -63          20054
   2876.00000000          10061          -8746         -34916         -19799
   2880.00000000          -2547         -30883          15263          26254
   2884.00000000          19856          -8036          -1847         -19686
   2888.00000000         -40027         -17286           1426         -11540
   2892.00000000          -9870          19462          10126          15706
   2896.00000000          58064          20530           -145         -12236
   2900.00000000          13738           8164          34806          -9934
   2904.00000000          57831           4065          -9062           3709
   2908.00000000          20683          12239         -34410         -18632
   2912.00000000         -14816          42440         -27409          31792
   2916.00000000          43697           6113          -7563         -31512
   2920.00000000          -6662         -41804         -16699         -27362
   2924.00000000         -24688          13720          28651          12352
   2928.00000000           7954         -16429          29299         -13032
   2932.00000000         -34508          32151          17803          44778
   2936.00000000           -909         -26584          44310          -2547
   2940.00000000         -23475          -6942          -6312         -56589
   2944.00000000          23035         -27047          20431          21008
   2948.00000000         -34242            595           9784         -45175
   2952.00000000         -50076         -18019           8525           3007
   2956.00000000         -22841          -3405          20797         -13974
   2960.00000000         -10613          14185          41217          26294
   2964.00000000          -1521         -18935          30025         -52112
   2968.00000000         -52901         -14960         -19240         -36627
   2972.00000000          -6262           3972          28616          -1319
   2976.00000000         -25603          22712          14518          24676
   2980.00000000          -4046          10374           1055           1191
   2984.00000000          -1136          10869           -364         -35462
   2988.00000000          -3217          10142         -16845         -35203
   2992.00000000         -24685          16383           1828         -14946
   2996.00000000          -5717          -6604          38736          -8387
   3000.00000000          50180           1287         -22492           9569
   3004.00000000         -16494          21717          24723         -53164
   3008.00000000          -1990         -53474          -9560         -21932
   3012.00000000         -23039           4402          13574           -697
   3016.00000000           8840         -13718          36139         -17342
   3020.00000000          10154         -10746          10805           5771
   3024.00000000          14276         -31577           6647         -28603
   3028.00000000         -15607         -20308         -28739         -47549
   3032.00000000         -20973          34743         -17016         -36213
   3036.00000000          -8997          15156           4426         -27424
   3040.00000000         -25039         -17389         -27549          -6722
   3044.00000000         -17161         -11718          14574           3577
   3048.00000000         -18154         -23616          -3230         -31538
   3052.00000000         -12635           1359          21935          -9045
   3056.00000000          14401         -11981         -28705          -5049
   3060.00000000           3449          -3808            488           7054
   3064.00000000           1327           -386         -10197           9236
   3068.00000000         -26371         -15814          35237         -20006
   3072.00000000          -4082           5110           -228          -4556
   3076.00000000          12005           6270          10431           2525
   3080.00000000           6021          -1519          -6946         -22822
   3084.00000000           -729          -1565         -17567           3693
   3088.00000000         -14901         -30221          24855           6431
   3092.00000000         -17216          24325          -4210          13017
   3096.00000000         -38514         -13532          -5608           4780
   3100.00000000          17573           -642         -15026         -15069
   3104.00000000         -32029          45289            423         -19488
   3108.00000000          -7975          -8113          14530          17054
   3112.00000000         -29067          22875           1967          -2954
   3116.00000000          10006         -24455          -4771          30396
   3120.00000000            355           3495         -13371         -12325
   3124.00000000         -16677          15274         -34416         -26770
   3128.00000000          -7798          -1486            920          17389
   3132.00000000          -1752           6605          20473           7159
   3136.00000000         -14606          10967          32182         -15663
   3140.00000000         -19056           1894           7165         -14839
   3144.00000000         -19129           7375         -20242         -16532
   3148.00000000           2354           4585           2479         -20674
   3152.00000000          20314         -13138         -11868           3687
   3156.00000000          -5611          -5236          16868           8980
   3160.00000000          21001         -26300          11308          -3707
   3164.00000000           6180         -11500          -4222          -4431
   3168.00000000           7164          23696          23119           -910
   3172.00000000          12901          -3873          11943           7733
   3176.00000000          -5170           -288          16973          -1679
   3180.00000000         -15790          -2204           1737          17885
   3184.00000000          -1462         -12366          13284           1832
   3188.00000000            560         -14640          -4652          -3619
   3192.00000000         -12440          -6202          -9907         -13949
   3196.00000000           5106          19601          11454          -4702
   3200.00000000          23545          18632          13826           5292
   3204.00000000          12014           2572           -610         -26395
   3208.00000000          29606         -12125          -7661          -7111
   3212.00000000           6089           3968          26341          -6349
   3216.00000000           8920           4299         -22425           8292
   3220.00000000          13809         -21757         -21750           2956
   3224.00000000         -11237           7892          11819          -9337
   3228.00000000         -11269           9097         -29464         -12922
   3232.00000000          36266         -17697          17339          30725
   3236.00000000          18666          -8310         -17060          -6498
   3240.00000000          26665          21898          -7266          21012
   3244.00000000         -10742          -2898          10312         -11997
   3248.00000000         -16789          -4971           6986          -4350
   3252.00000000          21849             31          36498          12455
   3256.00000000          12982           5111           6495         -14690
   3260.00000000           5661          19774         -11738          15831
   3264.00000000          -2136          15075          14549         -14504
   3268.00000000         -11617           4726         -13635          -6114
   3272.00000000          -3206          -4997           7714           8196
   3276.00000000          11624          16228           1499         -12275
   3280.00000000           2046           9120          13739            214
   3284.00000000         -19930          -6676          25545           5356
   3288.00000000         -17844           -393          10215          21964
   3292.00000000          -9457         -10490         -16996           2670
   3296.00000000          -2353          14150          -3791           1732
   3300.00000000          11765          14257          -6791          -3081
   3304.00000000            733          15820         -16906          21926
   3308.00000000         -10953           1686          -3489           1949
   3312.00000000         -11065         -22231           3962           8585
   3316.00000000           3112           4020          -1615          15962
   3320.00000000          13748          10164         -12122          17590
   3324.00000000           4792          -4811           2113           1189
   3328.00000000           4162           5440         -19964          20368
   3332.00000000           8826          -1960          12066         -13870
   3336.00000000           8403           2815         -11637          10958
   3340.00000000          26390          17396          25861         -19508
   3344.00000000         -11482           9494          21709           9000
   3348.00000000           1482           7157           6494          -2712
   3352.00000000          -6933         -15505          -1546          -2486
   3356.00000000         -15556           6490           3068          -1073
   3360.00000000          17904          -7613         -13768         -10284
   3364.00000000         -15641          -7984         -10470           1878
   3368.00000000          19492            234         -12686          10085
   3372.00000000           2233         -14153            674          13953
   3376.00000000           5309           1521          -4079          -3612
   3380.00000000         -13057          -2207          11325         -10757
   3384.00000000          -5102           1463         -12247          10220
   3388.00000000           -286          -6769           3198           1303
   3392.00000000           4638           9561           3627          15432
   3396.00000000           7363          -4866         -10303           9952
   3400.00000000           2737          -2293          -6390           2315
   3404.00000000          -5236           8195         -15877           5231
   3408.00000000           5947           -630          -5551          13435
   3412.00000000           2723          -9916         -10227           5328
   3416.00000000          11843           2568           1258          -8753
   3420.00000000          -3533           3798         -13436          -3073
   3424.00000000           2937          -5283           5179         -14676
   3428.00000000           8222          -6047          -8009           2906
   3432.00000000          -1697          10535           6399         -26523
   3436.00000000         -24123          -6078          -3442          -4553
   3440.00000000          13268          10839          -4026          -8890
   3444.00000000          -5646           5899          -2610          -2272
   3448.00000000           5882           -393          -1678         -10000
   3452.00000000           7085           5312         -12431           -942
   3456.00000000         -13008         -10852          -3617          -6808
   3460.00000000           8883           5897          -1296          -5488
   3464.00000000           -665           8556          -9456          11969
   3468.00000000          -9445           1650         -16646           1187
   3472.00000000          -2937          -1242          10703           2370
   3476.00000000         -25705          -2815            695           8812
   3480.00000000          -5661          -3230         -11922         -19646
   3484.00000000           2083          -4733           1138          -7657
   3488.00000000            814          -4045          -9389         -21696
   3492.00000000          22092           4359           7015         -12072
   3496.00000000         -10840         -15783          -1441           -584
   3500.00000000           7128           1446          -3738         -12969
   3504.00000000           6059           8151         -14949          20992
   3508.00000000          -1884           -805          -9387         -14469
   3512.00000000         -10504         -16272           2223         -20776
   3516.00000000         -11194          -5703          16713           8620
   3520.00000000           3727          11292          -5876           3644
   3524.00000000          -1999           9940         -14406          -4601
   3528.00000000          11574           6498         -13220           5784
   3532.00000000          -2058         -20305           1944           1698
   3536.00000000            921         -11445           4529          -3298
   3540.00000000           5094          18666          -4116           5169
   3544.00000000          -8759          -4432           4617           3747
   3548.00000000          -4199         -18816           3291          -5855
   3552.00000000          -2393           4239             60          -2717
   3556.00000000          11939          -5335           3839          15872
   3560.00000000         -10292          -2272          16322          -2783
   3564.00000000          -3516           1651           5543           6269
   3568.00000000          -1490           8039          12993          -9281
   3572.00000000           2832           2365          10088          -1708
   3576.00000000           8906         -13309          -9489         -10476
   3580.00000000          -3997          -5213           6939           7737
   3584.00000000           3186           1923           -273          -4290
   3588.00000000          -6015          -8099          -3443           -408
   3592.00000000         -19548          14255          -6012           2132
   3596.00000000          -1880           -645          -3838           8810
   3600.00000000            309          -2625             19           1815
   3604.00000000          -4410           -808           4476         -11462
   3608.00000000          -7167          10104            698           2521
   3612.00000000          -1925          -8826          13321           2394
   3616.00000000           7092          -1908           3939          12496
   3620.00000000          -5854          -1604          -3969          -9019
   3624.00000000         -12547           5116           6044           6924
   3628.00000000          -9213           2738           6578          -2430
   3632.00000000          13201          -2105           7426           5737
   3636.00000000          -9850          10178          -4988           6355
   3640.00000000          13849          -1833         -13941          -1043
   3644.00000000           1487          11115          11485          -4320
   3648.00000000           6175           3016           -538           1277
   3652.00000000          11943          -4103           3353          -2442
   3656.00000000          -5775           4930          -1623          -4179
   3660.00000000           6540           3215          -5587          -4353
   3664.00000000          21284           -272           8424          13411
   3668.00000000          17238           -224          -2419           2716
   3672.00000000            167           4327          12230          -4521
   3676.00000000          -4601          -1353           2150          -1459
   3680.00000000            262           2819          -2436            268
   3684.00000000           9475           7844           1453          -2512
   3688.00000000            464           7563          -6344           3757
   3692.00000000           -253           3113          -4163          -3891
   3696.00000000          10298          -5950           5432           4948
   3700.00000000         -10927          -1440          -1637           1736
   3704.00000000           7781          -4913         -12094         -11889
   3708.00000000           2733           8654           5841           1139
   3712.00000000           2676          -3907          12396           4096
   3716.00000000          -5282           7115          14300          -6044
   3720.00000000           3441          -4276           4672           2054
   3724.00000000           5138           2219          10408          -1774
   3728.00000000          -9925          -4857           2067           9650
   3732.00000000          -1214          -2766          -6128          -1417
   3736.00000000          -7872           1779           9752          -1059
   3740.00000000           9773          -1056            255          15028
   3744.00000000         -10426          -5118          -1397            570
   3748.00000000           5975            518          -1520          -2368
   3752.00000000            585           2205         -14100            766
   3756.00000000          -5067          -3586          -8195          -9494
   3760.00000000           5403          -2634            319          10876
   3764.00000000            992          -8231           7455          -8102
   3768.00000000          -1128           5736          -1543          -3226
   3772.00000000          -1798           5646          -6141          -4233
   3776.00000000          -1366          -3114          10732          12552
   3780.00000000           3054           2118            192           5428
   3784.00000000          -1642          -2069          -7396           -603
   3788.00000000           2807          -7854           1728          11837
   3792.00000000          -2065          -4691          -1690           3292
   3796.00000000          -6559           2440          -8815          -5960
   3800.00000000          -6294           5325           1605           1149
   3804.00000000          -9441          -7581            573          -1021
   3808.00000000           1470          -3392          -4171          -6086
   3812.00000000         -18588           4134           2796           2828
   3816.00000000            722          -8101            324           5531
   3820.00000000          -1469          -4187          -1926          -5054
   3824.00000000           2986             28           3758           2308
   3828.00000000          -2963           3146           1703          -3354
   3832.00000000           4068          -4041           4402           5919
   3836.00000000           2810           -322          -5667           5441
   3840.00000000          -3206          -2676          -3032          -3770
   3844.00000000           1597          -3974          -8988          -3912
   3848.00000000          -4552          -2095            169          -5527
   3852.00000000           8559           2527          -2198           5288
   3856.00000000          -3305          -9418           -762           -279
   3860.00000000             52          -4298          -2987          -1840
   3864.00000000           3165          -4151           1372           -684
   3868.00000000           4960          -9762         -10466           6134
   3872.00000000          -7210           1707           2921          -2611
   3876.00000000           6533          -4312           1052           8411
   3880.00000000           3567           4592          -3984          -2469
   3884.00000000          -1546          -1012          -6561           4287
   3888.00000000           5205            542            979           -344
   3892.00000000          -4286             71          -2598          12863
   3896.00000000            764          -4929           1212           3144
   3900.00000000          -4122          -1836           3347          -3076
   3904.00000000          -1952          -2210         -12901          -3858
   3908.00000000           -414           -270          -5081           -273
   3912.00000000          -1316          -2058          -1377           -305
   3916.00000000          -5389           4175           3538          10803
   3920.00000000          -2922           8709           6692           1001
   3924.00000000          -2461             57            764           4560
   3928.00000000          -6148          -5092          -1737          -3289
   3932.00000000          -3169          -9766          -4503           -773
   3936.00000000            -65           2101          -2075          -1570
   3940.00000000           1403           -256           1377           1918
   3944.00000000          -2729          -1840           -185            217
   3948.00000000           5888           7381           6437           5025
   3952.00000000           -818           1078            940          -2794
   3956.00000000          -7036           6672           1321           5686
   3960.00000000           5380           4269           2831          -4391
   3964.00000000           -919          -2489          -5776         -12245
   3968.00000000           5241          -5330            911          -1802
   3972.00000000           2337           -296          -1986          -4451
   3976.00000000           3636          -4898          -2992           -357
   3980.00000000           3561          -2656           5746          -7322
   3984.00000000           3138          -3649            756            -39
   3988.00000000          -7439           1884          -2512           -811
   3992.00000000          -4854          -1842           3205           1847
   3996.00000000           -795          -1056           4018          -3863
   4000.00000000           1446          -4369           1222           1079
   4004.00000000           1742          -3057          -1938          -1152
   4008.00000000          -3537           1843            699           2817
   4012.00000000          -3384          -3436           1075           1020
   4016.00000000          -4959          -2487           1434          -6534
   4020.00000000           6510          -6293          -5408           4216
   4024.00000000           2498          -4158           1548           6706
   4028.00000000          -2367           3826          -1857          -1382
   4032.00000000           2387            360          -2527          -2076
   4036.00000000           -177          -1542           2371           7321
   4040.00000000           5078          -6603          -2890          -2390
   4044.00000000           4058          -4959           2876           9257
   4048.00000000          -4201          -4525           1748           1599
   4052.00000000          -1111           -743            426           2051
   4056.00000000           1336           4999           1061           5306
   4060.00000000          -2630          -1099          -7548           1425
   4064.00000000            643          -3278           1695          -1637
   4068.00000000          -1043          -1541          -5589          -1352
   4072.00000000          -2383            443          -4456          -3966
   4076.00000000           2500           -312           -733           2248
   4080.00000000              8           1763           2833          -6282
   4084.00000000           1261           2852           3956           2840
   4088.00000000           -911           -655          -5356          -1435
   4092.00000000            622          -1996           1785           -607
   4096.00000000            151           5890           -921           2549
   4100.00000000           6582          -2968           -495           -638
   4104.00000000          -2463          -5462           3964          -2392
   4108.00000000          -2089          -3851           3142           2749
   4112.00000000          -3022          -5221          -1318            661
   4116.00000000            776          -2675          -2325           1459
   4120.00000000          -5526           1678          -2737           1023
   4124.00000000          -2899           1334           6758          -4778
   4128.00000000            367          -4323          -3542          -3424
   4132.00000000           1567             42          -4455           -786
   4136.00000000            412           3782          -1658          -4090
   4140.00000000           6081          -1584           1337          -1840
   4144.00000000           2120           3080           2336          -1059
   4148.00000000           2880           4821           3662           -798
   4152.00000000          -4113          -1131          -1023            375
   4156.00000000           1127           1143           -651           2877
   4160.00000000           2538            861           4723          -1327
   4164.00000000            790           -975            543           2839
   4168.00000000           3510           5321           1635           -835
   4172.00000000            509          -2428           -259           -793
   4176.00000000            543          -2448           -686           -274
   4180.00000000           -930           -104           -861          -2351
   4184.00000000            484            707            203           -243
   4188.00000000          -1293           2008            388            615
   4192.00000000           1407           4485           1822            745
   4196.00000000          -1380           -954          -4901           2083
   4200.00000000            621           2916           5440           2380
   4204.00000000          -2565           1276          -3353          -1513
   4208.00000000          -3184            248           2354           2259
   4212.00000000           -250           2127          -2214           -962
   4216.00000000          -4627           -196          -3055            343
   4220.00000000           8403            248            210           -305
   4224.00000000          -4057          -2736          -3881            190
   4228.00000000           5132           1784            707            728
   4232.00000000          -3571          -3574           3013          -1806
   4236.00000000           4107            476          -1356            454
   4240.00000000           4539           3972           2217           2782
   4244.00000000            -28            -45           1680           6365
   4248.00000000            449           -171           1247           2460
   4252.00000000           -335          -2000           -709            556
   4256.00000000           3830           3688            909            744
   4260.00000000          -3034           1865           -988          -3472
   4264.00000000          -5507          -1809           -573           2949
   4268.00000000          -2464            993              1          -6486
   4272.00000000           4536            209          -2196           2204
   4276.00000000          -1991            447            818           -521
   4280.00000000          -2729           2055           5373           -993
   4284.00000000          -3779            148           4544           2095
   4288.00000000          -1380          -1417          -3904          -2041
   4292.00000000          -1063          -1710           -760          -2448
   4296.00000000          -1890           2098           2757           1954
   4300.00000000          -1186            333           1383           1067
   4304.00000000           1196          -4354           -639          -2534
   4308.00000000          -2675          -1518           -352           4310
   4312.00000000            624          -1031           1943           3516
   4316.00000000          -4843           1738          -2383          -2228
   4320.00000000          -3032           -632          -2007           3564
   4324.00000000          -1463           3233           1510            122
   4328.00000000          -1478           -280           -626          -1386
   4332.00000000           2199          -5392           -306          -1852
   4336.00000000          -2476           -154           1036          -6192
   4340.00000000            275            824          -1088          -2843
   4344.00000000          -1474           -254            469            757
   4348.00000000            771          -1786          -2487           2568
   4352.00000000            254            221           -837            910
   4356.00000000            328          -1666           -852          -3922
   4360.00000000           -736           4126          -1496           -812
   4364.00000000          -3779          -3459           -197            166
   4368.00000000          -3710           -932            953          -1677
   4372.00000000          -3306          -2947          -2267            950
   4376.00000000           -374            814           4040           1889
   4380.00000000          -1050          -3087           -774           3517
   4384.00000000            991             81           2326          -2567
   4388.00000000           1744          -3448          -2658          -1507
   4392.00000000           -536           1741           1007           -767
   4396.00000000           1061          -1825           -870           -102
   4400.00000000           2220           2845           -825          -4259
   4404.00000000           2611          -3277          -3452           3081
   4408.00000000           -324          -1551          -1276            -10
   4412.00000000            535           1259            834           2906
   4416.00000000           2584           2373          -1081            115
   4420.00000000          -2131          -3493           1060           2355
   4424.00000000           -920           -650             18          -1397
   4428.00000000            697            514          -1569           1626
   4432.00000000          -1664            410           1280          -2342
   4436.00000000           -925           -556          -1878           1822
   4440.00000000            726           -422          -2387            381
   4444.00000000           1153           4947          -1766            340
   4448.00000000            -29           3133           1830           1324
   4452.00000000            522          -1501            214            333
   4456.00000000            -11           1944          -1648            622
   4460.00000000           -200           -431          -2333          -1239
   4464.00000000           3387          -1012          -1411           3356
   4468.00000000          -1342          -2217          -2078          -2124
   4472.00000000          -1551           1593           -752            224
   4476.00000000          -1205            473          -1934           1962
   4480.00000000           1290           1891          -1349           2372
   4484.00000000          -1437          -2301            306            179
   4488.00000000           -145          -1961            475          -2080
   4492.00000000           2080          -3694          -4215           1094
   4496.00000000          -1340          -3037           -178          -1155
   4500.00000000           -284          -1553           -395             74
   4504.00000000           1192           1083          -2501          -1148
   4508.00000000          -1550           -531             87          -2880
   4512.00000000            890           1627            239            197
   4516.00000000          -1015          -3551            814          -2606
   4520.00000000           -387            401            906          -2657
   4524.00000000             85            517          -1293          -2007
   4528.00000000            183           -687            948           -352
   4532.00000000           4244              9           1334            326
   4536.00000000           1315          -2274            324          -1626
   4540.00000000            759           -675            500           -540
   4544.00000000           -166          -1108          -3102          -3085
   4548.00000000            326          -3353            -61           2741
   4552.00000000          -1582            193           1391           -440
   4556.00000000          -2107           1390          -1303            244
   4560.00000000           -613            619           1069          -2115
   4564.00000000           -662            671          -1610            702
   4568.00000000           -750           -160            186            951
   4572.00000000          -1101          -1661          -1876          -3044
   4576.00000000            745           2377          -1614           1383
   4580.00000000            827          -3790          -2794            106
   4584.00000000           1418            982            152            699
   4588.00000000          -2270           1755           1596           3341
   4592.00000000          -1462            276          -1306            318
   4596.00000000           2078          -2031            826           -340
   4600.00000000           -184          -4393           2143           1222
   4604.00000000           3542           -682          -1836          -2467
   4608.00000000            465          -1772          -2147          -1942
   4612.00000000            559          -1214          -2546           1232
   4616.00000000           -561             93            876           -226
   4620.00000000          -2557          -1322          -1169           3154
   4624.00000000           1487           1549           1526           -360
   4628.00000000             48            509            361          -2960
   4632.00000000             71            -60            646          -1647
   4636.00000000           -309            102           -806          -3097
   4640.00000000            -93          -2252           -970             18
   4644.00000000           1168           1257          -1678          -2351
   4648.00000000           -616            603           -647          -1222
   4652.00000000          -1677           1470          -1754           -427
   4656.00000000          -1788           -629            913            290
   4660.00000000          -1890           -260             81           1455
   4664.00000000           -463             84           3019           -286
   4668.00000000           -511           1675            926           1220
   4672.00000000            279           -554          -1964          -1314
   4676.00000000          -1852          -1958          -1621            999
   4680.00000000            762           -736           -642           -305
   4684.00000000          -2426            922           1151           1086
   4688.00000000          -1389           -604             -2          -2182
   4692.00000000            360          -1008          -1258           1016
   4696.00000000           -484            250           3199          -1582
   4700.00000000           2658           -235             37            -85
   4704.00000000             49           -151          -2252             93
   4708.00000000          -2415           -301            955          -2002
   4712.00000000          -1093          -1192            200            218
   4716.00000000           1300          -2305             36            884
   4720.00000000            703          -1532           -821          -2350
   4724.00000000          -1309          -1166           -207           -680
   4728.00000000           -965          -1132            172           -969
   4732.00000000          -1052           -861          -1532           1015
   4736.00000000           -785           -843            382           1673
   4740.00000000            852           3133            -81           2780
   4744.00000000           1228            344           -402           1802
   4748.00000000            227           1065           1002           -853
   4752.00000000            -22           1465           -533          -1957
   4756.00000000            253            534          -1322            649
   4760.00000000            696           -790           -682            849
   4764.00000000          -1806           -189            374          -1543
   4768.00000000            342           3137            884             11
   4772.00000000            544          -2287           -596          -1939
   4776.00000000            792           -709           2259           -522
   4780.00000000           -337           -458           1712           -626
   4784.00000000          -2005           -112            802            -40
   4788.00000000           -699          -1168            912            927
   4792.00000000           3051            450           -607           -507
   4796.00000000            -74           -309          -1366            637
   4800.00000000            194          -1223           -131            384
   4804.00000000           -219             12            668            -48
   4808.00000000           2076            339           1051           1435
   4812.00000000           -188          -1034            121            278
   4816.00000000           1085           -310            944            597
   4820.00000000           -282           1090           -469          -1120
   4824.00000000           -260           3029           -617           -641
   4828.00000000           1233          -1427           -923           -158
   4832.00000000          -1355           -428          -1423          -1228
   4836.00000000           2964            995           -811           -337
   4840.00000000             86           -361           -531            504
   4844.00000000           -285            733            712            832
   4848.00000000            155             62           -617           -163
   4852.00000000          -1172           1207            134          -1025
   4856.00000000            753            847          -1119            431
   4860.00000000            134           -506            622           -634
   4864.00000000           -579            502          -1841            214
   4868.00000000            699           -247            493            385
   4872.00000000           1773            768           -170            221
   4876.00000000           -212           -127           -920            175
   4880.00000000           1289            424            975          -1529
   4884.00000000           1778             68           1642           -776
   4888.00000000            782            356            -50          -1167
   4892.00000000           1466            640           1232           1419
   4896.00000000           -546            -17           -293          -1408
   4900.00000000            876            441            -43            418
   4904.00000000            311            441            311           1003
   4908.00000000            -17          -1891            861            450
   4912.00000000            -87            410           -772           -304
   4916.00000000            228             68            -42           -342
   4920.00000000          -1100           1295           -203            425
   4924.00000000           -334            401           -106           -817
   4928.00000000            646           -513            152           1357
   4932.00000000           -358            865           -134             48
   4936.00000000           -848           1089           -703            548
   4940.00000000          -1467            237           1451           -760
   4944.00000000             20            143            124            267
   4948.00000000           1117            459            763             95
   4952.00000000           1091           1801            599            469
   4956.00000000          -1656           -257            807           -300
   4960.00000000           -536           1001            231           -151
   4964.00000000           -731           -569            192           1349
   4968.00000000            -62            932           2134           1258
   4972.00000000             87           1143            984           -415
   4976.00000000            344             72            538           -321
   4980.00000000           -484           -118           1158            747
   4984.00000000            -29          -2171          -1122            313
   4988.00000000            -72           -222           -134            -92
   4992.00000000            821          -1781            347          -1389
   4996.00000000           -185            552           1242            414
   5000.00000000           -674           -638            332           -692
   5004.00000000           -136            236            693             66
   5008.00000000           -669            123           -109             38
   5012.00000000            773           -356           -202            338
   5016.00000000           1280             45           -206            954
   5020.00000000             57           -372           -280           -555
   5024.00000000           -597            -22            497          -1246
   5028.00000000            355           -851            -74           -343
   5032.00000000            545           1382           1493             77
   5036.00000000           -355            -78           -575            326
   5040.00000000           1133            -26           -315            521
   5044.00000000           -607           -357           -277            221
   5048.00000000          -1458           -828            284           -252
   5052.00000000           -174            581           -512            442
   5056.00000000           -352           -625           -347           -112
   5060.00000000            -47           -738             34            321
   5064.00000000            361           -793            -24          -1118
   5068.00000000           -423          -1147           -425           -388
   5072.00000000            597           -283           -469            972
   5076.00000000           -401           -224            505           -913
   5080.00000000            879           -733           -269           -691
   5084.00000000           -740            951            452           -924
   5088.00000000           -635           -336           -596           -400
   5092.00000000           -280            397            -74           -966
   5096.00000000           -912           -531            -10            151
   5100.00000000           -648           -143          -1236           1768
   5104.00000000          -1464            388           -789           -334
   5108.00000000           -885           -867           -682            947
   5112.00000000           -607            806            632            649
   5116.00000000           -367            168            453           -589
   5120.00000000           -208           -675            265           1215
   5124.00000000            266             88           -608            228
   5128.00000000           -523           -269          -1089           -430
   5132.00000000            608           -701           -951            391
   5136.00000000           -403           -218           -230           -688
   5140.00000000            -63            125           -388            548
   5144.00000000            388           -764            838          -1047
   5148.00000000          -1494            413            118          -1086
   5152.00000000            696            595           -375            539
   5156.00000000           -913           -670             68           -293
   5160.00000000           -492           -465          -1053           -162
   5164.00000000            409           -444            281            648
   5168.00000000           -215            380            267            -33
   5172.00000000           -927           -506           -841            440
   5176.00000000            503            -60            325           -723
   5180.00000000           -454            451           -114           -740
   5184.00000000           -643            444           -841           -883
   5188.00000000            250            198           -813            118
   5192.00000000             65            389            770            459
   5196.00000000           -742           -172             90           -273
   5200.00000000           -711            -84           -465            283
   5204.00000000           -427            200             93           -573
   5208.00000000             92            244           -534            126
   5212.00000000           -229            311            211           -181
   5216.00000000           -372            122           -424           -635
   5220.00000000           -291            432           -229            656
   5224.00000000            335            324           -353           -612
   5228.00000000            452           -715            -91            341
   5232.00000000            316           -166             40           -442
   5236.00000000           -255           -165            175           -213
   5240.00000000           -143           -430           -220          -1196
   5244.00000000           -324            458           -773           -593
   5248.00000000           -356           -360             20           -430
   5252.00000000           -565          -1071            160           -616
   5256.00000000           -241           -453            415            490
   5260.00000000           -131            201           -857            325
   5264.00000000           -337           -270            902           -151
   5268.00000000             -9            188            730             74
   5272.00000000            408            658            560            345
   5276.00000000            286           -402            274            271
   5280.00000000            621            642            692            450
   5284.00000000            -19            434            430            -46
   5288.00000000           -100             14           -659           -214
   5292.00000000           -559           -582            986            -73
   5296.00000000           -498           -369             15             76
   5300.00000000            397           -214           -571             26
   5304.00000000           -505           -194            403            -43
   5308.00000000           -186            605           -644           -166
   5312.00000000            427           -356            -31           -152
   5316.00000000           -492           -142            -95             51
   5320.00000000            265           -558            406           -356
   5324.00000000            441            226           -864            160
   5328.00000000            299            556            -66           1023
   5332.00000000           -680           -284            616            -78
   5336.00000000           -275            625           -525             36
   5340.00000000           1114            589           -773            296
   5344.00000000            247            387            261          -1080
   5348.00000000            189            -75            522            -19
   5352.00000000            175             -7            -36            615
   5356.00000000            118           -270             30            -40
   5360.00000000            662            457            185           -106
   5364.00000000             -2             48             28           -240
   5368.00000000           -592           -386            313            -48
   5372.00000000            164            150            439            712
   5376.00000000            -98           -489           -431            -95
   5380.00000000            245            208           -106            -86
   5384.00000000            188            373            276            941
   5388.00000000           -435             74            366           -721
   5392.00000000           -105           -370            949            100
   5396.00000000           -214           -364            140            388
   5400.00000000            743            825            272           -293
   5404.00000000            411            675           -329            455
   5408.00000000             16            420           -319            115
   5412.00000000           -113            290            -71           -258
   5416.00000000             49            451            309           -418
   5420.00000000            886           -206            677            387
   5424.00000000           -508            240           -165            -78
   5428.00000000             23            468            152           1147
   5432.00000000            356            186           -161            616
   5436.00000000             18           -102            179            542
   5440.00000000            -11            390            457            154
   5444.00000000           -516             98              2             72
   5448.00000000           -179            204             21           -128
   5452.00000000           -110           -156           -271            151
   5456.00000000            113            162            228             86
   5460.00000000           -215            162             64            186
   5464.00000000           -397            311            336            -13
   5468.00000000            -68            441            -39           -228
   5472.00000000           -249            283            118            -82
   5476.00000000           -291             44           -155            -48
   5480.00000000           -424            667            421            389
   5484.00000000           -417             36            -96             27
   5488.00000000             66           -465           -431             67
   5492.00000000            -75            -73           -434           -128
   5496.00000000             93            -95           -470           -380
   5500.00000000           -158           -338            -20            504
   5504.00000000            409           -157            442           -487
   5508.00000000            142            304             64           -507
   5512.00000000           -229            255           -108           -134
   5516.00000000            -43           -169           -246           -289
   5520.00000000           -172           -298            897            550
   5524.00000000              6            397            191           -233
   5528.00000000           -224           -512            280            650
   5532.00000000            453            340            -81           -424
   5536.00000000           -229           -314           -754           -219
   5540.00000000             23            124           -197            192
   5544.00000000           -469             81            -12           -397
   5548.00000000            197           -433           -587            -91
   5552.00000000           -612              9           -388           -358
   5556.00000000           -423            136           -659           -187
   5560.00000000           -204           -249             91            130
   5564.00000000           -415            396             45            235
   5568.00000000              3            310            -96           -332
   5572.00000000           -311            245             19           -207
   5576.00000000            135            212           -243           -356
   5580.00000000           -309            150           -318            646
   5584.00000000           -483           -268            -80            503
   5588.00000000            143           -274            -78            -50
   5592.00000000            222             28           -193            -21
   5596.00000000           -211           -373             34              0
   5600.00000000            141            -54             16            -81
   5604.00000000            140             11           -429            220
   5608.00000000           -307             61            222            -44
   5612.00000000             16            -96           -482           -621
   5616.00000000             60            117           -201            135
   5620.00000000             76           -289            -10           -262
   5624.00000000             94             48           -243           -199
   5628.00000000            -13           -186            263             65
   5632.00000000             86           -196            -77            205
   5636.00000000           -117             64           -178             76
   5640.00000000            394           -363           -431            102
   5644.00000000            157            182           -139            139
   5648.00000000            -60             59             30           -162
   5652.00000000            331            234            236           -490
   5656.00000000            -22           -245             49            130
   5660.00000000            -72           -356           -233           -331
   5664.00000000           -185           -264           -142           -169
   5668.00000000            152           -564           -200            117
   5672.00000000            122           -186           -454           -105
   5676.00000000            169           -214           -373            199
   5680.00000000           -125              3            243            -13
   5684.00000000            111           -364           -240            -39
   5688.00000000           -111            115           -121           -159
   5692.00000000            -18            204             15            286
   5696.00000000           -550            187            133              3
   5700.00000000             62             28             67           -175
   5704.00000000             -6            200           -456           -209
   5708.00000000            273           -119           -146             60
   5712.00000000             -1           -358           -137           -308
   5716.00000000           -345             49            -14           -109
   5720.00000000            -12            110           -177            183
   5724.00000000             73           -253             35             28
   5728.00000000             96            -15            -90           -315
   5732.00000000           -509             46           -148           -129
   5736.00000000            353           -385           -148            -94
   5740.00000000           -263             34             40            199
   5744.00000000           -266           -284             17              3
   5748.00000000            -70           -155            149            151
   5752.00000000            174           -231           -253           -204
   5756.00000000            -67            159           -237            134
   5760.00000000           -300            -77           -289            141
   5764.00000000           -147            -35            209            149
   5768.00000000            282             27           -330            117
   5772.00000000             53            -64           -314            -26
   5776.00000000           -334             26            -17           -348
   5780.00000000           -252            -86            218            320
   5784.00000000            296            117              6            219
   5788.00000000            -46            -60            -36            191
   5792.00000000            303             36            242            338
   5796.00000000           -168           -205             29             16
   5800.00000000             38             -5             79            -31
   5804.00000000            -65            163             15            236
   5808.00000000            -77            134            101            -27
   5812.00000000           -244            -86            -41            254
   5816.00000000             87            309            -39            229
   5820.00000000             73           -195           -183            541
   5824.00000000             49           -199            246           -221
   5828.00000000             27             23            156             60
   5832.00000000            137            165            -17             38
   5836.00000000            300           -166            -29              9
   5840.00000000             75            258            239             73
   5844.00000000             57             38             26            -85
   5848.00000000            194            171            222           -117
   5852.00000000            192            -30            -15              5
   5856.00000000             72            -31            249           -226
   5860.00000000            105           -101            -14            140
   5864.00000000            108            250            -11           -156
   5868.00000000             19            117             88            112
   5872.00000000            427             -3             19            112
   5876.00000000             78            -61             11            257
   5880.00000000            254           -196            156            139
   5884.00000000            176            312             56            152
   5888.00000000           -142            331            116            136
   5892.00000000             18            142            -44            -37
   5896.00000000            287             55            129            -64
   5900.00000000             14            166            213            274
   5904.00000000             43             72            125             -3
   5908.00000000            264            261            163           -262
   5912.00000000            148              3            -63           -192
   5916.00000000             80            -61           -156            -77
   5920.00000000             66           -392            152            195
   5924.00000000            -42             76            -65             -3
   5928.00000000            189             44            -55            181
   5932.00000000              2            -39             15             44
   5936.00000000             87              2             54             69
   5940.00000000            322           -139           -143             18
   5944.00000000            150            212            168           -288
   5948.00000000            237           -177           -127           -289
   5952.00000000            192            -82            205            237
   5956.00000000             37            234           -160             31
   5960.00000000             82             27            -77            163
   5964.00000000            247             61           -215            225
   5968.00000000            -99             61            147           -416
   5972.00000000           -276            -61            -85            118
   5976.00000000            -74             41             56           -103
   5980.00000000             72            308            193           -140
   5984.00000000           -121            491            -57            -21
   5988.00000000            -89           -210              9            -49
   5992.00000000             86             80            -89            -44
   5996.00000000           -137            -76           -143             29
   6000.00000000            212           -109            129            -66
   6004.00000000            -54             -2            -43           -115
   6008.00000000             52            -35              7            -73
   6012.00000000             28            -86            -25            -26
   6016.00000000           -152           -371           -110            119
   6020.00000000            181           -184             31           -116
   6024.00000000           -246            -45            -51             26
   6028.00000000           -145           -140            -23           -146
   6032.00000000           -127           -140            -81            -85
   6036.00000000            -87            -42            121           -132
   6040.00000000           -189            -27             88           -119
   6044.00000000             47            -26              0             79
   6048.00000000             -8            -24           -138             48
   6052.00000000           -200            -76             -5             48
   6056.00000000            -62             82             30            105
   6060.00000000            -69           -110             20           -139
   6064.00000000            -41            -65           -118            -78
   6068.00000000             61            101             22            -58
   6072.00000000            103            -88            117            126
   6076.00000000           -117            146            -95            -13
   6080.00000000             81            -58            -78           -128
   6084.00000000           -111            -22           -124             68
   6088.00000000           -163           -228            -10           -186
   6092.00000000           -117            -82            -47             23
   6096.00000000            -80            -44            -41           -255
   6100.00000000             27           -121            -28            -29
   6104.00000000           -149           -170           -175             -1
   6108.00000000            104           -128            148             47
   6112.00000000             29            -75           -130           -100
   6116.00000000             70             54            -16            138
   6120.00000000             14             -1           -173           -116
   6124.00000000           -125           -129            -94            105
   6128.00000000            -71             85           -158           -102
   6132.00000000            -80            -94           -189           -118
   6136.00000000              4            -34            -35             -0
   6140.00000000           -140            -75           -132           -125
   6144.00000000           -111           -124           -167            -16
   6148.00000000             77             20             -1            -16
   6152.00000000             30           -155           -116             82
   6156.00000000            147            -62              8            -58
   6160.00000000            -93             76           -221             63
   6164.00000000             15            117             38             -5
   6168.00000000            -27             12             99            -66
   6172.00000000            -41            -24            -63            -38
   6176.00000000           -113            -16            -91             61
   6180.00000000           -145            194            314             29
   6184.00000000            -78              3            -19             66
   6188.00000000             40             58           -130           -177
   6192.00000000            -38             15             -5            -32
   6196.00000000            -38             38            -21             62
   6200.00000000             84             -3             46            -93
   6204.00000000            -65            -57           -144            135
   6208.00000000              3             -5            -29            -96
   6212.00000000            -84            -98            -42            148
   6216.00000000              7             90             72            -92
   6220.00000000             23             17             -4            -24
   6224.00000000            -37            -10           -117            169
   6228.00000000             55            -79            102              2
   6232.00000000            -44             29            -91            -64
   6236.00000000            -86             55             41              0
   6240.00000000            -20             -6            -55             -2
   6244.00000000             20            140             17             88
   6248.00000000            -34            -73            -42            120
   6252.00000000             58            -46            142            109
   6256.00000000            -30            -25           -116           -126
   6260.00000000            -44             67             91            -32
   6264.00000000             99             57             64           -147
   6268.00000000             48            146             -1            -76
   6272.00000000             35            -61              3            -11
   6276.00000000            147             55           -108            114
   6280.00000000            -58             33            120            119
   6284.00000000            -90             15           -108             30
   6288.00000000             28             -9             18            104
   6292.00000000              3             74            -84            -44
   6296.00000000            -34            -98            177             88
   6300.00000000             19           -162             69             63
   6304.00000000             40            -18             44            -12
   6308.00000000            -88           -162             17            134
   6312.00000000            112             -2             22            -59
   6316.00000000             31              3            102            -45
   6320.00000000            -92            -15             28             -8
   6324.00000000             48            -69             81            -55
   6328.00000000             -5            -15            -99            -50
   6332.00000000           -133             -1             -6            109
   6336.00000000             98             20             71             59
   6340.00000000            -12             19             11             37
   6344.00000000             -8             14            -65             75
   6348.00000000             79           -144           -105            -19
   6352.00000000            106             58            -73            184
   6356.00000000             -1           -128             13           -127
   6360.00000000            -98            -79             96             74
   6364.00000000            -25             50             15              5
   6368.00000000            -97            -34            -90            -12
   6372.00000000             50            127             56             29
   6376.00000000             36             22             92           -129
   6380.00000000            -69             13              6             54
   6384.00000000             92             97             41             55
   6388.00000000            -35            -15            -46             61
   6392.00000000            -81            168            -44            -21
   6396.00000000            -29            -82             33           -132
   6400.00000000           -101            -42            -12            -28
   6404.00000000             35            -32             43             94
   6408.00000000             18              3            -35            -57
   6412.00000000              6            -13             -2            -48
   6416.00000000             45            -92             18             48
   6420.00000000              2            -37            -45            104
   6424.00000000             14            -69            -36            -48
   6428.00000000             -8             -4             41            -15
   6432.00000000            -10            -41            -26            -45
   6436.00000000            -24            -50            -96            -10
   6440.00000000             67             57             53            -41
   6444.00000000             46             37            -41            -95
   6448.00000000            -47            -68             35             45
   6452.00000000            -41            -71            -52             63
   6456.00000000            -35            -45              0             86
   6460.00000000             28             18             46            -59
   6464.00000000            -89             17            -44             -5
   6468.00000000            -24            -70             29            -14
   6472.00000000           -143            -84            -36             40
   6476.00000000            -23             11            -74             20
   6480.00000000            -12             23           -131            -82
   6484.00000000            -25             -1            -10             24
   6488.00000000            -47             43             86            -13
   6492.00000000             45             -2            -85             64
   6496.00000000              9             50             51             87
   6500.00000000            -55            -44            -10             20
   6504.00000000            -37            -43             41           -100
   6508.00000000             31             -7            -27            -63
   6512.00000000             72           -135            -85            -30
   6516.00000000            -16             10              4            -33
   6520.00000000             95              1            -53             -1
   6524.00000000             26            -57            -17            105
   6528.00000000            105            -28            -47             40
   6532.00000000             28            -60             51            -61
   6536.00000000            -40             -1            -30            -19
   6540.00000000            -41            -57             44             -3
   6544.00000000            -17             56             92            -83
   6548.00000000           -213             11             21             25
   6552.00000000             15             54             70            -59
   6556.00000000            -20             94            -44            -15
   6560.00000000            -75             11            -15           -102
   6564.00000000             -3           -135             -7             89
   6568.00000000            -72             58             48            -25
   6572.00000000             65             37             32             27
   6576.00000000            -50           -119             -6            -18
   6580.00000000             40             72             76             68
   6584.00000000             42             67            -37            -31
   6588.00000000            -86             21              2            -53
   6592.00000000              3             -1             -1             96
   6596.00000000             18            102            -21             53
   6600.00000000            -45             91             26             25
   6604.00000000             45            -45             -8           -105
   6608.00000000            -13              3            -26             -7
   6612.00000000            -89             72             67             24
   6616.00000000             22            -25              4            -16
   6620.00000000             -7            -14            -22             41
   6624.00000000             42            -54             -9            127
   6628.00000000             -6            -47             53             13
   6632.00000000             18            -24             43             67
   6636.00000000            -81             -1             14             69
   6640.00000000             59            -68            -14            -38
   6644.00000000             -0             36             -4             25
   6648.00000000            -43            -20              7             11
   6652.00000000            -13             98             14             40
   6656.00000000            -34             16             -1            -49
   6660.00000000              5             41            -25             58
   6664.00000000            -18             30             -8             16
   6668.00000000             37            -75            -36            -24
   6672.00000000             16            -87             26            -41
   6676.00000000             -3              6              4            -55
   6680.00000000             13            -75            -29             12
   6684.00000000            -27             25             83             47
   6688.00000000             58             48             -1             93
   6692.00000000             -2            -38             -1             46
   6696.00000000             55              2             -8             16
   6700.00000000             14             46             -9             16
   6704.00000000              3             18             14            -93
   6708.00000000             17             48              3             13
   6712.00000000              3            -12             -4             -3
   6716.00000000            -63           -115             19            -34
   6720.00000000             21            -18             54            -15
   6724.00000000             43              4             86             45
   6728.00000000             10             39             29             -4
   6732.00000000             63             50             35             49
   6736.00000000             37            -39             10            -60
   6740.00000000             10             18              2            -23
   6744.00000000             59            -18             -9            -33
   6748.00000000             38             32             36             72
   6752.00000000             11            -45             13             22
   6756.00000000            -27             37            -34            -30
   6760.00000000            -20             49             -7             39
   6764.00000000             -7            -62            -21             62
   6768.00000000             45             -4              9            -32
   6772.00000000             93             -8             22            -25
   6776.00000000             -8             -2            -13             11
   6780.00000000              1             -1            -46             34
   6784.00000000              4             76            -57            -24
   6788.00000000            -24            -62            -16            -33
   6792.00000000              2             38              7             31
   6796.00000000             32            -28            -62            -28
   6800.00000000             -7             11            -21             12
   6804.00000000            -27              3            -16             16
   6808.00000000            -56              8             25             15
   6812.00000000            -13            -50             -4            -15
   6816.00000000            -20            -18            -28            -15
   6820.00000000             33              7            -25              7
   6824.00000000             24              5             -6              1
   6828.00000000            -16              3             16            -12
   6832.00000000             39            -22             48             20
   6836.00000000            -11            -13             48             11
   6840.00000000            -55            -11             22            -21
   6844.00000000             -4            -26            -41             31
   6848.00000000             42             42             50            -34
   6852.00000000              0             16             38             28
   6856.00000000            -15             18             14            -41
   6860.00000000             -7             25            -14             18
   6864.00000000             -7            -13            -20             36
   6868.00000000            -38            106            -13             25
   6872.00000000            -20            -19             20            -56
   6876.00000000             26            -26            -29             13
   6880.00000000            -11            -14             50             36
   6884.00000000             13            -15              7             -0
   6888.00000000              2             20             53            -20
   6892.00000000             -1              1             -7             11
   6896.00000000             18              4             17             59
   6900.00000000              8            -11            -30             27
   6904.00000000              9             24            -12             29
   6908.00000000             10            -11            -19             34
   6912.00000000             13            -33             24             -4
   6916.00000000            -21             15            -16            -11
   6920.00000000             -6              7            -11            -55
   6924.00000000             21            -20            -22            -36
   6928.00000000             -9            -25             -3            -48
   6932.00000000              9             -0            -29            -15
   6936.00000000            -64             12            -35             66
   6940.00000000              4              3             17            -28
   6944.00000000              5             16            -11            -16
   6948.00000000              6             -1            -47             18
   6952.00000000             48            -41             21              0
   6956.00000000             -1             18              5            -35
   6960.00000000            -24             30            -18             29
   6964.00000000            -15              9             -4             -5
   6968.00000000             29             20             19              0
   6972.00000000             17              7            -37            -16
   6976.00000000            -25            -16              6             14
   6980.00000000            -22             -3             12             13
   6984.00000000            -45              7              5             16
   6988.00000000             25              5            -25            -22
   6992.00000000             17            -27            -72            -11
   6996.00000000             -1            -16            -10             23
   7000.00000000             -9             17              9            -29
   7004.00000000              3              1            -19             10
   7008.00000000            -41             26             -5             -8
   7012.00000000             -1              4            -31            -19
   7016.00000000            -21             29             -8             -4
   7020.00000000             35            -39              8            -25
   7024.00000000             -0            -19             11             -2
   7028.00000000              0            -30              9             38
   7032.00000000             17             -7            -12            -19
   7036.00000000            -36              7             24              5
   7040.00000000            -21             -3             11             -2
   7044.00000000             23            -45            -14            -30
   7048.00000000            -21             29             11            -24
   7052.00000000              9            -17            -14             44
   7056.00000000            -40              2              6              0
   7060.00000000             -6             45            -62            -13
   7064.00000000             58            -18            -31            -45
   7068.00000000             14             12            -18            -21
   7072.00000000             13             -8            -31             13
   7076.00000000            -20            -25            -33             -1
   7080.00000000             -7              7             -3             -1
   7084.00000000            -10            -13              1             42
   7088.00000000             -2             30            -41            -35
   7092.00000000             28             -2            -21            -10
   7096.00000000              1              7             -2            -13
   7100.00000000             10             -3             10              2
   7104.00000000             14             -5            -25            -18
   7108.00000000             20             16            -31            -19
   7112.00000000            -18            -24             -9            -25
   7116.00000000             -8             30            -19             17
   7120.00000000            -18             -1             22             41
   7124.00000000             -8            -26            -15             -3
   7128.00000000            -24             15             -8             -2
   7132.00000000              4            -28            -41             18
   7136.00000000              5            -11            -32             15
   7140.00000000            -13             16            -27             36
   7144.00000000            -19             13              5            -16
   7148.00000000             23             24            -14             -8
   7152.00000000             -5             19             -6            -33
   7156.00000000             -7             -3              1             24
   7160.00000000            -21              8             11              9
   7164.00000000              8            -36              0             21
   7168.00000000              3              1              2              0
   7172.00000000              9              1              5            -11
   7176.00000000             29            -17              3              1
   7180.00000000             -8            -34              3             -7
   7184.00000000             21              2             21             27
   7188.00000000            -16             20            -22              1
   7192.00000000             -4             10            -13             22
   7196.00000000             18             34             18             -2
   7200.00000000              9             19             17             -4
   7204.00000000            -18             -4             13              8
   7208.00000000              3              7              8              2
   7212.00000000            -10            -21             19             -9
   7216.00000000             13             15              8             19
   7220.00000000              2             14             34             -0
   7224.00000000             -4            -12             11             17
   7228.00000000             19             -5              9             20
   7232.00000000            -13              2             -9             26
   7236.00000000              5              1             -5              3
   7240.00000000             -2             11              1            -17
   7244.00000000             12             -4             13            -18
   7248.00000000             -7              0              6             -1
   7252.00000000              6            -19             -5              5
   7256.00000000              5             16              2              1
   7260.00000000             14            -17            -13             -4
   7264.00000000             10             -3            -12              9
   7268.00000000              7             -3            -12              3
   7272.00000000            -12             15             20             -6
   7276.00000000              6            -12             -1              6
   7280.00000000              1            -12            -27              6
   7284.00000000            -29              1            -14              5
   7288.00000000             -2             -8             15            -11
   7292.00000000            -24             25             -2             -2
   7296.00000000            -16             -7              2             21
   7300.00000000             16             16              3             -9
   7304.00000000             17             15            -26             18
   7308.00000000            -10             -5            -22              2
   7312.00000000              2             18             -4             18
   7316.00000000             40             20             13            -17
   7320.00000000             12             -5              8            -23
   7324.00000000            -31             15             -6             23
   7328.00000000              6             -2             -2              7
   7332.00000000             22             -8             -1             30
   7336.00000000             12              7            -10              7
   7340.00000000            -13              2             -2            -16
   7344.00000000             -7             18             -7              0
   7348.00000000              4             -5              6            -14
   7352.00000000             -6            -18             -6            -14
   7356.00000000            -25             28            -17             -6
   7360.00000000             -5             -6            -18              3
   7364.00000000             -9            -12              1             -8
   7368.00000000              2             10              0             -7
   7372.00000000             -2              2              9            -22
   7376.00000000              2             -8              7            -20
   7380.00000000             21             14              1            -15
   7384.00000000             -7              5            -11             12
   7388.00000000            -13            -16             -3            -17
   7392.00000000             -3             -2              9              1
   7396.00000000             14            -14              9             -3
   7400.00000000            -14             -7              5             -8
   7404.00000000             10            -11             -7              4
   7408.00000000             -1              1              6              1
   7412.00000000              2             14            -11              9
   7416.00000000             -7              4              2             13
   7420.00000000              0             10             -0            -10
   7424.00000000            -24              2              5              2
   7428.00000000             -1              0             -3             -6
   7432.00000000              6              4             -0              5
   7436.00000000             11            -15              2             12
   7440.00000000              7             16             -2              2
   7444.00000000             14              3             18              3
   7448.00000000             -7             10             -2             -1
   7452.00000000             18             -0             -3             16
   7456.00000000              6              5             -8              0
   7460.00000000             -2             13             -7             10
   7464.00000000             -6             10              4             10
   7468.00000000              2              1             12              3
   7472.00000000             -5             -7              2              7
   7476.00000000              5             -4              6              5
   7480.00000000              7              7              7             -1
   7484.00000000             -3             -4              2              7
   7488.00000000             -8              9             -5             15
   7492.00000000             -2              5              6             -7
   7496.00000000              1              3              3             10
   7500.00000000             14             -6              6             -3
   7504.00000000             -6              0              3             10
   7508.00000000             -4             -4            -11             11
   7512.00000000             -8              3             -5             -8
   7516.00000000              6             12              6              4
   7520.00000000             -0              5              8              5
   7524.00000000             16             -2              7             -1
   7528.00000000             -3             -5             -1              4
   7532.00000000             15             10             -4             -2
   7536.00000000              1             14             21             14
   7540.00000000             -6             15              9             -5
   7544.00000000              4              9             -0              8
   7548.00000000             -2             -1             -1             -2
   7552.00000000              5              3            -10              2
   7556.00000000             16             -0              4              1
   7560.00000000              3             -1              4            -13
   7564.00000000             -7              2              7             -5
   7568.00000000             -6             -0             -0            -12
   7572.00000000              1             10             -5             -0
   7576.00000000              4              1             -9             16
   7580.00000000              2             -3             -4             18
   7584.00000000             12             -1             -2              5
   7588.00000000             10              6             -1             -9
   7592.00000000             -3              3              8              5
   7596.00000000              3              3              0              9
   7600.00000000              4             -0              9              2
   7604.00000000            -11             12             -3             16
   7608.00000000             12              3             -0             -6
   7612.00000000              1             -1             -2              2
   7616.00000000             -7             -9              5             -8
   7620.00000000              3              6             -5              2
   7624.00000000              0             -1             -7             -1
   7628.00000000             -6             -5              6             -1
   7632.00000000             -3              1              2              8
   7636.00000000             -4             -8            -11             -2
   7640.00000000              2             -5             11             10
   7644.00000000             -8             -1              1             -3
   7648.00000000             -7             -0              9             12
   7652.00000000              4              2             -1             -7
   7656.00000000              4            -12             -9              3
   7660.00000000             -3             -0              6             -7
   7664.00000000             -4             -5              1              8
   7668.00000000             -1              7             -5              2
   7672.00000000             -1              6              2              4
   7676.00000000              0             -2            -10             -1
   7680.00000000              3              5            -11              8
   7684.00000000             -0              0              5             -3
   7688.00000000             -3             16             -3             -4
   7692.00000000              7              1              8             -1
   7696.00000000              9              2              2             -3
   7700.00000000             -6              0             -1              0
   7704.00000000             -1            -11            -12             -1
   7708.00000000             10              4              4             -7
   7712.00000000            -14              2             -5              1
   7716.00000000              9             -3             -2              5
   7720.00000000              3             -4              4              5
   7724.00000000              0             -4             -1            -15
   7728.00000000             -2             -7             -5              4
   7732.00000000             -0             -2             -8              1
   7736.00000000              0            -17             -1             13
   7740.00000000             13              0            -13             -3
   7744.00000000             -4              1              0             -1
   7748.00000000             -0              0             -3             -6
   7752.00000000            -13             -4             -8             -4
   7756.00000000              1              1              8              8
   7760.00000000             -1              1             -8             -7
   7764.00000000              3              9             -2             -8
   7768.00000000             -2             -1             -3            -13
   7772.00000000             -1             -8            -12             -7
   7776.00000000             -9             -2             -1            -10
   7780.00000000              1             -5             -6             11
   7784.00000000             -5             -2             -6              3
   7788.00000000             -4              3              0             -5
   7792.00000000              1             -0             -2             -4
   7796.00000000             -1              9              3             -1
   7800.00000000              4             -4             -8             -1
   7804.00000000             -3             -8              4             -4
   7808.00000000             -3             -2             -6             -5
   7812.00000000             -3              4             -2              1
   7816.00000000             -9              2              5              6
   7820.00000000              0             -5              8              5
   7824.00000000             -5             -8              3              1
   7828.00000000             -5              7             -2             -8
   7832.00000000              1              5              6              1
   7836.00000000              2              1              4              5
   7840.00000000              8             -3              2              5
   7844.00000000             -2             -3             -1              3
   7848.00000000             -5             -3              7              4
   7852.00000000             -2             -0             -5             -4
   7856.00000000              2              7             -7              0
   7860.00000000             16             -1             -6             -1
   7864.00000000             -1              5              2              3
   7868.00000000              4             -5             -3              0
   7872.00000000              2              2              1             -0
   7876.00000000              3             -2              0             -1
   7880.00000000             -6              3              1              7
   7884.00000000             -2             -6              7             11
   7888.00000000             -6              6              1             -6
   7892.00000000              2              4             -1             -4
   7896.00000000              2              1             -1             -0
   7900.00000000             -6             -6              5              4
   7904.00000000              3              3             10             -1
   7908.00000000             -2              2             -1             -1
   7912.00000000             -2              3              2              4
   7916.00000000              7              5             -6              4
   7920.00000000              4             -2             11              3
   7924.00000000              5             -1              7              0
   7928.00000000              1              4              8              5
   7932.00000000              3             -1              2              6
   7936.00000000              3              5             -9              2
   7940.00000000              0             -1              4              6
   7944.00000000              6             -0              0              4
   7948.00000000              1              3              6              4
   7952.00000000             -6             -5             -1             -8
   7956.00000000             -0             10              1              5
   7960.00000000              3              2              1              1
   7964.00000000              8             -1             -2              2
   7968.00000000             -3              5             -1              1
   7972.00000000              2             -1             -2              2
   7976.00000000             -6             -2             -3             -3
   7980.00000000              4              2             -1             -4
   7984.00000000             -2              2              4             -3
   7988.00000000             -4              1             -1             -4
   7992.00000000             -0             -1             -4              2
   7996.00000000              2             -4             -9              1
   8000.00000000             -2             -2             -2              2
   8004.00000000             -4             -0             -4              7
   8008.00000000             -2             -6              3              2
   8012.00000000             -1              4             -2              1
   8016.00000000              1              4              5              3
   8020.00000000             -4             -1             -8             -0
   8024.00000000              0              1              1              1
   8028.00000000              2             -2              3             -0
   8032.00000000             -5              5              3             -0
   8036.00000000              0              3             -2              2
   8040.00000000              2              0              5              4
   8044.00000000             -2              3             -3             -6
   8048.00000000             -3             -2             -1             -5
   8052.00000000             -3              6             -5             -4
   8056.00000000              2             -2             -2              3
   8060.00000000              5              1              0             -2
   8064.00000000             -0              7             -8             -6
   8068.00000000             -1             -7              6              3
   8072.00000000              4              2             -2             -2
   8076.00000000              1             -5             -5              2
   8080.00000000              3             -2             -4              3
   8084.00000000             -8              2             -1              0
   8088.00000000              1              2             -5              1
   8092.00000000              2              3              2             -6
   8096.00000000             -1             -0              2              0
   8100.00000000              1              2             -1             -4
   8104.00000000             -2              3             -0              3
   8108.00000000              1             -1             -1              2
   8112.00000000              1              1             -5              2
   8116.00000000              2             -6              1              2
   8120.00000000             -1              6             -0             -2
   8124.00000000              0             -2             -2              5
   8128.00000000              1             -1             -0             -1
   8132.00000000              2             -7             -4              3
   8136.00000000              1              2              2             -2
   8140.00000000             -1             -5             -2              2
   8144.00000000             -5              1              3             -6
   8148.00000000              3             -2              5             -4
   8152.00000000              4             -5              2             -1
   8156.00000000              5              2              1              3
   8160.00000000              4              1              1              1
   8164.00000000             -3             -0              1             -1
   8168.00000000              3              3             -1              1
   8172.00000000             -1             -3              0             -1
   8176.00000000             -2              0              3              6
   8180.00000000              4             -1              5              4
   8184.00000000              0             -1             -1              2
   8188.00000000              4             -0              2             -2
##PAGE=N=2
##DATA TABLE= (X++(I..I)), XYDATA
      0.00000000      496137777      136622933      177673998      634558733
      4.00000000      914119160      504573167     -372673957    -1162203385
      8.00000000    -1420186380    -1096472394     -287968445      764456716
     12.00000000     1646388868     1785570882      950717167     -443109556
     16.00000000    -1482310705    -1569246524     -833141483       52358883
     20.00000000      538481912      553840000      396694698      304224125
     24.00000000      333828032      356453090      230302980     -139729823
     28.00000000     -669009227    -1098112181    -1057131446     -390970565
     32.00000000      653699904     1472557489     1534704222      755011857
     36.00000000     -393874789    -1237801599    -1338329527     -773620061
     40.00000000       25525272      579163474      688561345      462186574
     44.00000000      186514658       66148149      114474387      147746211
     48.00000000      -20271954     -409982432     -789118577     -832131294
     52.00000000     -360534809      442110777     1122111835     1228490294
     56.00000000      661447821     -263155743    -1000350680    -1155135357
     60.00000000     -704588232       12563069      565865685      690732170
     64.00000000      447877121       98404357      -90772461      -53802875
     68.00000000       62494999       37618197     -210139475     -531448269
     72.00000000     -633679445     -327653903      289472572      857732750
     76.00000000      996117910      573228404     -176292494     -820396099
     80.00000000     -995666431     -642489043       -8047188      521463737
     84.00000000      676983805      451398982       76102704     -172270005
     88.00000000     -169906681      -25822262       43634339      -90153577
     92.00000000     -337894094     -463202670     -279210750      175019613
     96.00000000      640825927      802187050      512083381      -94265517
    100.00000000     -667918993     -872733444     -595684043      -28914462
    104.00000000      478801576      644792956      442680829       72911700
    108.00000000     -196560631     -233283655      -99933842       21149269
    112.00000000      -11679655     -180069959     -320977437     -248179828
    116.00000000       73996673      469463682      659115333      465534162
    120.00000000      -31792792     -541746424     -751252463     -542325501
    124.00000000      -58092738      405321288      594594121      442053131
    128.00000000       92885127     -204569609     -282991831     -153506699
    132.00000000       14194322       50665416      -74932626     -225015723
    136.00000000     -219813075        7673349      336178507      533986661
    140.00000000      422483912       25614777     -428805349     -654524241
    144.00000000     -506273736      -79870411      354528727      544107774
    148.00000000      414800139       97040619     -190432878     -284507214
    152.00000000     -182902529       -9794788       72435309        2636750
    156.00000000     -139332317     -187120075      -39070028      235171709
    160.00000000      430307757      372264041       55483044     -330295885
    164.00000000     -546922232     -455646670     -116858338      272535770
    168.00000000      486355840      418048455      130420406     -175289607
    172.00000000     -307399716     -215615415      -20813026       99202553
    176.00000000       54780139      -81495676     -153548357      -62282770
    180.00000000      149283929      327520951      319730510       95647620
    184.00000000     -227406098     -451126832     -425274280     -150388819
    188.00000000      209200542      436558013      401065722      147621532
    192.00000000     -147369121     -299503955     -241600429      -54984041
    196.00000000      100417451      110230225       -5941214     -117036331
    200.00000000      -99463688       64130590      248203877      293578994
    204.00000000      130360465     -158694626     -388894484     -399718746
    208.00000000     -170203000      164097462      396927049      390100452
    212.00000000      160068414     -130089042     -296341540     -251473734
    216.00000000      -69707768       97677475      131197447       37726704
    220.00000000      -74909079      -91491464       16883710      169872299
    224.00000000      234433596      129487855     -103647338     -317464974
    228.00000000     -358456113     -175144987      126005417      359214990
    232.00000000      375393515      174265255     -105291405     -284739605
    236.00000000     -272091619     -106065588       75422530      149951349
    240.00000000       88572499      -26012618      -80800185      -17946506
    244.00000000      109482639      187047914      122356793      -64895025
    248.00000000     -256649896     -310786565     -170205096       90275746
    252.00000000      310161720      350744493      186640034      -73733918
    256.00000000     -268395214     -285187658     -137215105       58970629
    260.00000000      164354636      130019707       13799848      -66893572
    264.00000000      -44410881       56006631      134022071      105404173
    268.00000000      -32760514     -194217824     -260361137     -163883223
    272.00000000       50888347      258388946      320794113      191359286
    276.00000000      -47644916     -243114140     -275062845     -147157040
    280.00000000       39644963      157573152      148877742       48315269
    284.00000000      -48465212      -66806729        -263490       83515662
    288.00000000       97152676        5611002     -132972675     -212334099
    292.00000000     -154565592       24301674      208808138      275589698
    296.00000000      175970190      -26677896     -204496136     -251246441
    300.00000000     -150528007       20317024      151296801      165279668
    304.00000000       74034494      -39821924      -86382355      -40070421
    308.00000000       44070976       80551995       28142184      -79096871
    312.00000000     -151598209     -122004163        1639623      146992923
    316.00000000      217246432      156941028       -3953814     -168646028
    320.00000000     -230763826     -151077575       14429529      152261247
    324.00000000      175133669       86432473      -34341656      -96568909
    328.00000000      -70750881        4522374       57945336       44094753
    332.00000000      -22690299      -92476999     -100849108      -23196727
    336.00000000       97430101      175096952      142971871        5112178
    340.00000000     -146689530     -207340094     -136832585       14698425
    344.00000000      141806266      167504825       92040685      -21892288
    348.00000000      -97133961      -95127481      -30594939       41059029
    352.00000000       63131698       16867918      -56052561      -86832722
    356.00000000      -35690911       67045191      139762121      118334047
    360.00000000        6918185     -118372298     -170240850     -118047721
    364.00000000        3200529      115448861      154781043      101250742
    368.00000000       -4342390      -93368386     -111405953      -52768092
    372.00000000       30876749       70366953       38666545      -30908445
    376.00000000      -69924802      -39162330       41291873      103362769
    380.00000000       94898751       14553777      -84829407     -138017367
    384.00000000     -109711894      -12477493       93789775      143499357
    388.00000000      106182457        6430236      -88558657     -115641391
    392.00000000      -63727034       19909223       68478283       52555280
    396.00000000       -6071522      -50317086      -42375314       12308543
    400.00000000       69833973       78918142       26748397      -55947050
    404.00000000     -114478905     -102542903      -23096975       78889951
    408.00000000      132747845      103544675       10460333      -82108816
    412.00000000     -115243738      -70651125        9230241       67565973
    416.00000000       66512299       15951718      -35352757      -47633595
    420.00000000       -8750685       44425512       65444605       32270643
    424.00000000      -35252424      -90290669      -89770036      -26428035
    428.00000000       60876746      115867670       97614437       17995738
    432.00000000      -71201162     -109262934      -75560949         600235
    436.00000000       64388526       75016054       31170485      -24554756
    440.00000000      -49785584      -27148953       19879715       50923255
    444.00000000       38197209      -13324594      -65233230      -76674742
    448.00000000      -31190695       43674863       96224278       88583401
    452.00000000       23853701      -56650146      -98542217      -77268160
    456.00000000       -9860466       57162534       77047106       43729442
    460.00000000      -13494275      -50403695      -41441904        1487809
    464.00000000       40653535       41945500        1862890      -46332540
    468.00000000      -64155317      -35076925       25983476       76238123
    472.00000000       77795633       26962372      -44405396      -86626589
    476.00000000      -74915833      -15197331       50401592       75670482
    480.00000000       50948558       -4181785      -45945933      -48270423
    484.00000000      -14232394       25719457       39231456       16480285
    488.00000000      -23801218      -47859417      -35476486        9973248
    492.00000000       57369314       67437151       29341034      -31125526
    496.00000000      -74648013      -69027470      -18699612       40467631
    500.00000000       71276547       54170818        5009770      -40108640
    504.00000000      -51676004      -26266695       11460380       33978985
    508.00000000       24711160       -5795072      -33794350      -31750578
    512.00000000        -949937       38487114       52187058       29741647
    516.00000000      -18570721      -59519207      -60538102      -24221558
    520.00000000       30070508       62661833       54615846       15146808
    524.00000000      -30903174      -51303546      -35730929        -774961
    528.00000000       28032878       31513881        8978058      -19676393
    532.00000000      -27926921       -9962688       22432393       39899397
    536.00000000       27772752      -11015803      -45449322      -53101685
    540.00000000      -23495646       21217018       52841104       51415342
    544.00000000       18840803      -21932640      -47714185      -40735562
    548.00000000       -9024019       23689943       34283804       18961945
    552.00000000       -9195691      -24366384      -16230313        9683755
    556.00000000       28834315       22130595       -3496291      -29321335
    560.00000000      -38216956      -19989786       12195372       39087286
    564.00000000       44562353       20891202      -16810372      -42224579
    568.00000000      -38624705      -12579380       19228261       34319107
    572.00000000       23991901        -795373      -17965309      -19706712
    576.00000000       -3899365       13727954       16389868        5189241
    580.00000000      -14270392      -26180281      -18301755        5450387
    584.00000000       29057442       35323966       15894389      -12204630
    588.00000000      -34745570      -33603640      -13059919       13424247
    592.00000000       29624358       26151232        7234641      -14601938
    596.00000000      -21161191      -13874376        5510993       15704182
    600.00000000       10373829       -5211420      -16881786      -15275679
    604.00000000        -432687       17790902       25191955       16079308
    608.00000000       -5303019      -23474307      -26914483      -15193904
    612.00000000        8173444       24986558       25589189        9877459
    616.00000000      -10579182      -19401006      -13451001         769846
    620.00000000       11793987       10117441         337605      -10297596
    624.00000000      -11328613       -3595245        9917765       18928073
    628.00000000       15328554         977004      -17578220      -24901057
    632.00000000      -16688490        2626096       19536207       22486946
    636.00000000       11142732       -6387568      -14982254      -13206159
    640.00000000       -3148118        6092349        9118689        4787550
    644.00000000       -3317619       -8194194       -5820138        5127023
    648.00000000       14206997       13749075        2704481      -12244035
    652.00000000      -20326700      -15187354          78094       14692849
    656.00000000       19687554       13501977        -987224      -11830323
    660.00000000      -15658293       -8778921        2084069        8651524
    664.00000000        7874159         813221       -6239532       -6191231
    668.00000000         608851        9531250       10602936        3349144
    672.00000000       -8885330      -15933653      -13492590       -1031894
    676.00000000       10998881       17418122       13676877         442554
    680.00000000      -11631620      -14910858      -10767444       -1243836
    684.00000000        9313417        9152635        3931561       -3071373
    688.00000000       -5277374       -2391356        3276708        7509952
    692.00000000        4425838       -4570935      -11644368      -11832728
    696.00000000       -3991945        9190330       16699441       12748457
    700.00000000        2938727       -9191441      -14486227      -12007831
    704.00000000       -3522575        7558653       10407189        6569513
    708.00000000        -572298       -4915233       -4625776        1110319
    712.00000000        4938889        4411343       -1761855       -8357185
    716.00000000      -10026774       -3951302        5609259       13143446
    720.00000000       13235614        4661601       -6280555      -14253418
    724.00000000      -13670833       -4535808        5759034       11641376
    728.00000000        9208500        2177365       -4611140       -5020699
    732.00000000       -1905981        2323340        3713830         329713
    736.00000000       -5731758       -8489192       -3851626        3628139
    740.00000000       11316376       11717360        5503678       -5158616
    744.00000000      -13001116      -13776594       -5754757        4743830
    748.00000000       12532865       11749234        4250917       -3945736
    752.00000000       -8657379       -5360383         494875        3487740
    756.00000000        2014781       -2352326       -5679197       -3861563
    760.00000000        1760388        8251614       10965984        7037295
    764.00000000       -2657890      -12300326      -14730528       -6625128
    768.00000000        4693597       11535179       12416101        5676210
    772.00000000       -3817996       -7953610       -6878844       -2194498
    776.00000000        2471570        3516824         670116       -2018278
    780.00000000       -3121270        -707831        5161478        8685882
    784.00000000        6066666        -848820       -9670265      -12770000
    788.00000000       -8043628        1177696       10311716       12195379
    792.00000000        7319620        -778468       -7530460       -8966857
    796.00000000       -5295836        1297184        4657074        3348908
    800.00000000         -77042       -3233312       -1258553        3875221
    804.00000000        6925431        5487253        -477627       -7267312
    808.00000000      -11224469       -8400822        -504517        9068361
    812.00000000       12487008        9644527         337516       -9084718
    816.00000000       -9941984       -5889632         -46150        4265263
    820.00000000        4811461        2189646       -1115114       -1507049
    824.00000000         902240        3919582        3753460         640987
    828.00000000       -6223568       -9162074       -6977966        1219195
    832.00000000        7265775       10260696        7106848         587002
    836.00000000       -6588703       -9335365       -8052624       -1459591
    840.00000000        3554134        6609882        3883106        -129686
    844.00000000       -2643841       -1235854        1075077        1494063
    848.00000000        -348915       -3354984       -5607622       -3164293
    852.00000000         566610        5417833        7156508        6806610
    856.00000000        1268151       -5004781       -9030295       -7209081
    860.00000000       -2201699        3755390        6931089        5330445
    864.00000000         773202       -1899024       -2606914       -1153276
    868.00000000        -104904         201910        -417169       -3010575
    872.00000000       -3054751        -471479        3739415        6073214
    876.00000000        5185182        1054861       -4012117       -6709187
    880.00000000       -6971675       -2339176        3123145        5621503
    884.00000000        4611382        1763591       -1296763       -3439772
    888.00000000       -2733088        -401864        1103683         -34697
    892.00000000       -1270743       -1726494        -323123        1483364
    896.00000000        3472740        3038484         153618       -3121513
    900.00000000       -4647739       -4935720       -1539051        2001198
    904.00000000        5166422        4742599        2074090        -801570
    908.00000000       -2736280       -2695132       -1795174         212537
    912.00000000         406672         456643        -462778        -123721
    916.00000000         417430        1804985        1777517         451403
    920.00000000       -1444659       -3451413       -3716706       -1451997
    924.00000000        1884374        2722484        3470463        1416423
    928.00000000       -1200691       -2260727       -2737942       -1731071
    932.00000000        -186076        1008489         989095         559501
    936.00000000         451554           6445          15710        1252880
    940.00000000         445462       -1477446       -2287689       -2213011
    944.00000000        -784124         945262        1704340        2367523
    948.00000000         267833        -967911       -1873724       -2037627
    952.00000000       -1131624        -578668         338915        1551014
    956.00000000         379550         285425        -273011         644255
    960.00000000         416891         576780        -310118        -804454
    964.00000000       -1331029        -423464         891251        1295630
    968.00000000        1730016         566164         312172        -944669
    972.00000000       -1579363       -1320970        -127895         321322
    976.00000000         901389         525070        -441678        -570808
    980.00000000         -48254         203795        -439887           5916
    984.00000000        -137388        -576229          14540        -538444
    988.00000000         457716        1056593        1350790        -424207
    992.00000000       -1005385       -1522475        -689346        -389167
    996.00000000         508514         513851         772631         -12418
   1000.00000000        -854066        -688001        -536467         -80691
   1004.00000000        -275388         300732        -655730        -341161
   1008.00000000         307366         604584        1426786         291662
   1012.00000000         -14115        -373345        -997017        -235424
   1016.00000000        -355864         599810        1708131         884407
   1020.00000000         395228         -64554        -668067        -403537
   1024.00000000         108676        -260691        -197898        -249843
   1028.00000000        -458203        -490295          11118         793931
   1032.00000000         550404         -85521        -980354       -1739266
   1036.00000000        -559995         -37964         859957         713728
   1040.00000000         437346         355686         311616          87902
   1044.00000000        -762379        -226524         189388        -290144
   1048.00000000         905719         414288         187736         264652
   1052.00000000         703956         255349          23253        -542462
   1056.00000000       -1013241        -791487        -645394          -9770
   1060.00000000         926411         883737         542564        -500820
   1064.00000000        -402497        -227275        -603299         418593
   1068.00000000        1040237         337536        -467606         301104
   1072.00000000         368570         714488         432611           3182
   1076.00000000        -157150        -896935        -615780          53886
   1080.00000000         655655        1319052        1447016         700359
   1084.00000000          51776       -1100479        -665106         -49518
   1088.00000000         483967         774819         409810         518196
   1092.00000000         595956          23074          80504         421529
   1096.00000000          24026        -833247        -743251        -830840
   1100.00000000        -541162        1717018        1111595         798181
   1104.00000000         148820        -262926       -1507240       -1068163
   1108.00000000         264561         344180         370452        1146927
   1112.00000000         462770         195942         236200        -243239
   1116.00000000        -278458        -527426         112657        -245846
   1120.00000000         -19986         603144        1299061        1410278
   1124.00000000         991958         804654        -683425        -592839
   1128.00000000        -840168        -823125         689854         709725
   1132.00000000        1151680         360081        -321064        -237744
   1136.00000000        -200784        -223341          74127        -262335
   1140.00000000         -51069        -296633        -346074         400179
   1144.00000000         882496         707973          -6777        -268099
   1148.00000000        -792908        -498152        -452954         576151
   1152.00000000         748247         662637         926536          33601
   1156.00000000         -60053        -662373        -159343        -137041
   1160.00000000         384444        -620504        -248097          49587
   1164.00000000         581787         885678         413905         189110
   1168.00000000        -306481        -460622        -641317        -165551
   1172.00000000          34553         819052         273556         266623
   1176.00000000         174513         -93177        -606775        -551215
   1180.00000000         186027         -13799        -170933        -222500
   1184.00000000        -207877         335466         821750         767192
   1188.00000000         -98590        -364752        -460124        -404160
   1192.00000000         312631         486104           -158         539508
   1196.00000000         124070        -167807        -380384           6204
   1200.00000000        -458976        -109588         529094           6787
   1204.00000000         328937         547448          70406          52565
   1208.00000000         182695        -403163        -176337           8590
   1212.00000000         -59839         253249         163862         147664
   1216.00000000         325680         345395        -506312         176925
   1220.00000000         -67528        -126390          76265         103631
   1224.00000000         192297        -241808         427589          69414
   1228.00000000         482528         252917        -133113        -185128
   1232.00000000        -483822          -4190        -413645         263366
   1236.00000000         338762         132849         -48553          21122
   1240.00000000        -341698          25339        -142219         169067
   1244.00000000         346734         248045        -209489        -424398
   1248.00000000         -96542         199383        -481157         220318
   1252.00000000         -61541        -140165         131054        -298197
   1256.00000000         -71545          74480        -111168        -248026
   1260.00000000         -29178         287666        -496165         -37857
   1264.00000000         377137        -440994         163826          25997
   1268.00000000        -351317          95785           5533         -71116
   1272.00000000        -411748        -100452        -250158        -150654
   1276.00000000        -666772        -493558        -338492         243031
   1280.00000000          72399          43594         206771         261499
   1284.00000000         -95114         -69646          65914         334611
   1288.00000000         109473        -221637          65534         406312
   1292.00000000         157640           4476         -72345        -216440
   1296.00000000          82836           -870        -505985        -389666
   1300.00000000          57001         157468        -183440        -491936
   1304.00000000          73569        -244411        -175183        -161750
   1308.00000000         180264         226173         110293          16261
   1312.00000000        -303251         233811         -32630          63558
   1316.00000000         121189           8423        -304601          64500
   1320.00000000         -27104         -28375        -147428        -136291
   1324.00000000        -137889        -187100         -69985        -488157
   1328.00000000          -9764        -354912          89888        -523230
   1332.00000000           4328          82669        -210517         -63780
   1336.00000000          40802          84349        -355523          80162
   1340.00000000          85934        -297701         119583        -369064
   1344.00000000        -312533         151434         154858         -53755
   1348.00000000         -30016         178066        -152904         135489
   1352.00000000           8288        -300982         -35055         -50882
   1356.00000000        -295909         -41790        -106546         519459
   1360.00000000        -192081         190898          23472        -388980
   1364.00000000        -355174          34114        -365793         125038
   1368.00000000         146014          53440        -120569         -59797
   1372.00000000         120943        -236369         540913         -63729
   1376.00000000        -171690         -77389          65113          15807
   1380.00000000        -164622         -98568         -58914          17940
   1384.00000000          47747         -68906        -190546          21459
   1388.00000000         211959        -142038         245318          -7089
   1392.00000000           1336         337310        -115311        -290364
   1396.00000000           7838        -154598          48957          -9983
   1400.00000000         313637          49939         -67415         162857
   1404.00000000          64161         144781        -340580        -341905
   1408.00000000        -223302        -195447           2008         338596
   1412.00000000         -70555         113794         204475         -39292
   1416.00000000          38004         200960          11282         175747
   1420.00000000         112708          18209        -215122          76464
   1424.00000000         155437        -311798        -288536        -292159
   1428.00000000         -85046         -25705        -231379         127072
   1432.00000000         369827         -41408         118471        -205169
   1436.00000000         180262        -183312          82967        -179353
   1440.00000000          31752        -172276         161840        -103325
   1444.00000000          15104         215941          89723         -64674
   1448.00000000         106487          -1651        -133157        -194332
   1452.00000000          29497         201170         -28727        -355734
   1456.00000000         223946         -73251         345705         -58064
   1460.00000000          82369         -84210          -2678         158199
   1464.00000000        -199903          64701          89815        -290470
   1468.00000000         396334          29963         176132        -204531
   1472.00000000          50337         140153        -272970          60883
   1476.00000000         115868         -26076        -176330        -231363
   1480.00000000          22483        -163956          31124         298546
   1484.00000000         170896         -48614        -162278          70275
   1488.00000000         212233        -192410          66274        -130466
   1492.00000000         -10194           3790         116492         -38778
   1496.00000000        -164083         137884        -354788        -321360
   1500.00000000           5255        -394208        -162280         303927
   1504.00000000         146776         -22679         195392        -271350
   1508.00000000          61905        -208807         -20138         160380
   1512.00000000         176910         102559         163167         133137
   1516.00000000        -122150        -300688         125093         132322
   1520.00000000        -107069         -11936         -40200          56076
   1524.00000000        -101022         -41244         147560          40616
   1528.00000000        -167065         -49002        -272422         -60068
   1532.00000000         -64025         -11176         -79781        -126362
   1536.00000000        -238977        -297910        -105072         122446
   1540.00000000         -46457         135269         -40902         250426
   1544.00000000        -340002        -229959          10439          38827
   1548.00000000        -236249         104087         128668        -119839
   1552.00000000        -104229        -104484         -88349          -7971
   1556.00000000        -113852         175495         128163         -96431
   1560.00000000         -95204         183266          66669         281803
   1564.00000000          77119         120507        -156035         316235
   1568.00000000          73166         234812          61321         137089
   1572.00000000          88262          56524         -96950        -101946
   1576.00000000         138304        -290568        -185247           9656
   1580.00000000        -149977         -39099         -22902         -48340
   1584.00000000        -141121         191325         177459         -81083
   1588.00000000         137859         -31726          34224          68758
   1592.00000000        -172796        -250971        -104408        -145931
   1596.00000000         415181        -233361        -178242          30920
   1600.00000000         -83312        -176916        -247450          97415
   1604.00000000         -65432         303188          69666         134554
   1608.00000000        -165241         -92175        -164505         159115
   1612.00000000        -208613         -44368         148233         126929
   1616.00000000        -103245          44479          99694        -156929
   1620.00000000        -168589           6892          91708         -23649
   1624.00000000         -30005         185174         347208         208897
   1628.00000000         219632          66472        -338863           4015
   1632.00000000         172342         169388          60727        -113803
   1636.00000000         -53127         125856        -236339         -86349
   1640.00000000         191254         402833         284438         102234
   1644.00000000         210969          47457         -20673        -148114
   1648.00000000         110202         194866        -233029         112072
   1652.00000000         157349          82637        -169743          49979
   1656.00000000         -46587           -107         -45465         -60181
   1660.00000000        -238322          81143         -79252        -150355
   1664.00000000         223408          43649        -122256         -49443
   1668.00000000          16667          77159        -150397         583141
   1672.00000000          34949        -278565        -386275          63072
   1676.00000000          45419         281812          74851        -129879
   1680.00000000         162536          46356          43711         123928
   1684.00000000        -113363          53483        -291866          52897
   1688.00000000         -75822          78988        -219339         -27744
   1692.00000000         113108         192455         131524         219050
   1696.00000000         -21717          20138          11359          36183
   1700.00000000         122256         -22771         169697          25499
   1704.00000000         187338         -71941        -169550         -40341
   1708.00000000           3690         -32437         -78872          43069
   1712.00000000         -14418        -209015         -57388          97901
   1716.00000000        -137322          52723         187408         217486
   1720.00000000        -186842          38444        -132551          91416
   1724.00000000         143705         -63483         148489          37424
   1728.00000000          81400         221569          19645          97976
   1732.00000000          83165        -227704          39190         119986
   1736.00000000          28528         238165         -17231          23523
   1740.00000000         134221          87634          96752         -25188
   1744.00000000          90073         174203          47893         109048
   1748.00000000          38228           9141         -36861          21101
   1752.00000000         103453         -48221         -61613          -6248
   1756.00000000        -202045        -126991          61361         268558
   1760.00000000        -121574        -122975         -83627         -66676
   1764.00000000          75459          79312         -47992         129186
   1768.00000000          55548        -133878          -9011          12927
   1772.00000000           2575          30613        -170808         100206
   1776.00000000          33219          71533        -163188          62287
   1780.00000000          77453          58625          53822          71852
   1784.00000000          -3260        -283684          18014         -84058
   1788.00000000          73961         -71657         -52499         120763
   1792.00000000          77800        -123502         248120           6456
   1796.00000000         -81887        -108351          31521         -34505
   1800.00000000         368553          17702         -20106         333090
   1804.00000000        -100365         -96142         144847         126637
   1808.00000000          66642        -130405         223061         127689
   1812.00000000         -82522        -151070         -64047         -31629
   1816.00000000         -72971         216529         220232          28739
   1820.00000000         166984          81732          13730         -58885
   1824.00000000          70091        -133773          16292         277643
   1828.00000000         107645         -56663          85292         208006
   1832.00000000        -104118          -7057         -52081         -16049
   1836.00000000         117691        -100282         -56586         109610
   1840.00000000         107268        -194518        -157773         183126
   1844.00000000         318867         -85031          57159        -172733
   1848.00000000          25197          -6840         167010         156762
   1852.00000000         -46556        -101288         -32283         -30015
   1856.00000000         144156         -10142          37391         108281
   1860.00000000        -123639         -61879          77810         -25785
   1864.00000000          47785        -134366         -76524        -177574
   1868.00000000        -132831          16759        -161118         -28325
   1872.00000000          -7533          98373        -128681         301206
   1876.00000000         -11096         109350          55532         127925
   1880.00000000          12977        -133513          28838         154072
   1884.00000000        -195007         -66558         113604         -26675
   1888.00000000         -60142          18268          -6273          13665
   1892.00000000         202170         -31519         -74917          23307
   1896.00000000          -4040          38897         -75997          76872
   1900.00000000           1644          50454         -10477          75487
   1904.00000000         186694         -95033          22071         -34700
   1908.00000000          98899        -157898         205669          70294
   1912.00000000         173444         224766          -7946          76094
   1916.00000000         -66145            551         -12634         -81937
   1920.00000000          99581          80025          96785          41566
   1924.00000000          41154         -36405          95488         109209
   1928.00000000        -267618         -40153          85186          11743
   1932.00000000          75113         136297          84528         -93889
   1936.00000000          96598         -57909        -178340           1451
   1940.00000000        -240520         134257         -96749         -36010
   1944.00000000          14107        -111400         -25336         -80992
   1948.00000000         -97288          20240         -84691          33413
   1952.00000000          74975          10172        -100115        -104863
   1956.00000000         -76242          30912          66749         -41785
   1960.00000000         106213        -145689        -133052         -31266
   1964.00000000         -50874         -95910          -6779        -170424
   1968.00000000          21522        -109377         185225        -170494
   1972.00000000        -107524          37205         -24133        -237845
   1976.00000000         -35591         -24212         -15332         -21635
   1980.00000000          -2661          24254          29262          77056
   1984.00000000          14899          65227          26517           6011
   1988.00000000        -104041         -40418        -221848          36342
   1992.00000000         -52466          20535          38706          83854
   1996.00000000          32931          59807          25822         -79230
   2000.00000000         -50018        -110178         -68267           9262
   2004.00000000         -21026        -106772        -117579         -12752
   2008.00000000        -102728         100546        -265186         -43953
   2012.00000000         -96667         -98703          38208         -80817
   2016.00000000         -79129         -82886        -100581          82349
   2020.00000000         160646         -94540         -29536         166190
   2024.00000000          52503         -40143         119859          83919
   2028.00000000          87530         -16442        -174481        -159215
   2032.00000000        -111813         -84933        -108645         158928
   2036.00000000         126876          60990          -7661        -105146
   2040.00000000         -98871         -32733          -1153         -28426
   2044.00000000          25127        -120405         106526         -52018
   2048.00000000         102763        -190681          -7743          -6124
   2052.00000000        -108654        -110693          76081          56067
   2056.00000000        -102661         -92959         -25715          11387
   2060.00000000         154397        -151414         -36035        -121752
   2064.00000000         -21257         118397          58140        -145255
   2068.00000000          31563        -146782         -19066        -193424
   2072.00000000         -13024         -22862         -62989        -106510
   2076.00000000         -36200         -24319         -24038          39659
   2080.00000000        -109881         -17648        -105011         -68969
   2084.00000000         -61196        -105173          70309         126498
   2088.00000000          40595         -10905         129139         -21220
   2092.00000000         121316         -60510          -3670          95782
   2096.00000000          18320         -29542         -83406          62570
   2100.00000000         -56273         -12701          -8901          42786
   2104.00000000         129487         -13335        -100114          60946
   2108.00000000         -15730         139126           2688          47037
   2112.00000000        -107411          90501         -49606         -10764
   2116.00000000          18623         -13449        -104499         -11332
   2120.00000000        -124090          52527         111250         -49266
   2124.00000000          33548          16159          54563          -8823
   2128.00000000          73511          45476         113757          31760
   2132.00000000          42411          31617          70184          81216
   2136.00000000         -50313          38784          66335          39153
   2140.00000000          51422          -6797         -42324         -51543
   2144.00000000          89956         -64324          -7420          55094
   2148.00000000          79502          30302          20111           2403
   2152.00000000          26626         -10220           3003          12977
   2156.00000000          63398        -191245        -101657         -23469
   2160.00000000            331          59761          51813         -95381
   2164.00000000         -67234         189323         -39839          17731
   2168.00000000          64978         -14489          68959          -9520
   2172.00000000         -39917          68387          37451          20340
   2176.00000000          92522         114048         -10309         -92524
   2180.00000000         -35585          65353         -65837         148333
   2184.00000000         104525        -116398           6619          14251
   2188.00000000          94731         -98913          55482         105722
   2192.00000000        -137303          -2902          74166          -2576
   2196.00000000           4164          59517           -977         123954
   2200.00000000         144157         -58662         -10851          64289
   2204.00000000          12983          40366          14416          85104
   2208.00000000          68977         193667          -1028          50093
   2212.00000000          64252        -117330           2162         -38541
   2216.00000000          21794          80406          38860          -4455
   2220.00000000          61742         -18830         -71356         -60993
   2224.00000000         116410         -19234         -38172         -51677
   2228.00000000        -118489          59123          72390         -37432
   2232.00000000         -84278         -27792         110443           1489
   2236.00000000        -111483         153802          51303          40066
   2240.00000000         139008           2067         141743          16663
   2244.00000000         130052          35201         -91903          95588
   2248.00000000         -39352          32748          40908           6138
   2252.00000000         -18209          13354          33783         -30038
   2256.00000000        -132915          20816         -10960           9367
   2260.00000000          66510         -80330         102080         108378
   2264.00000000          13612         -65806         -28651          20308
   2268.00000000          38241           7309         -26691          53757
   2272.00000000          46944           9318          19804          85537
   2276.00000000          25133         -42190          44482         -21603
   2280.00000000         -17146         -88695           3440         -17463
   2284.00000000          12456          -7498        -115844          12646
   2288.00000000         -55202         -72299          -4026         -37793
   2292.00000000         -59532         -70801           4149          59450
   2296.00000000         -47071          -5951          31444            -91
   2300.00000000          15465          72570           8557           7632
   2304.00000000         -92068         -48723          28677         102928
   2308.00000000          48869          -5604          55154          60374
   2312.00000000          68673         -30394          19781         -90965
   2316.00000000          64747          10382          15932         -56888
   2320.00000000         -32456          26410         -64656          29159
   2324.00000000          73149          11153         -41721          25923
   2328.00000000         -44657           9452          -1757         -74528
   2332.00000000        -119957          45852         -85302         -87586
   2336.00000000          31015         -55296           6023          97413
   2340.00000000          28972         -48398          54147          56006
   2344.00000000          54046          75651          82296         -44608
   2348.00000000        -130985         -69394          -3790          61431
   2352.00000000        -203548         -37408         -36592          15929
   2356.00000000         -17507        -138123         -54268         -23155
   2360.00000000          50174         -57933           4339         -85904
   2364.00000000          78081          27443         -51710         -47096
   2368.00000000        -135097           9778          46555         -35507
   2372.00000000            235         -55722         -56226          47632
   2376.00000000         -93035          40971         -57162          62466
   2380.00000000          40147        -107076         104807         -59042
   2384.00000000         -37492         -17018          58111         -19672
   2388.00000000        -125783         -21922          81935          44341
   2392.00000000         -23067          37577         -13636         -56174
   2396.00000000          10960          -9611          -4127         -90377
   2400.00000000         -52524         -39794          21215         -13423
   2404.00000000          24683         -27066          42785         -49124
   2408.00000000         -27144         -58395         -47589         -45212
   2412.00000000         -90866          -1661         -32596         -55473
   2416.00000000         -12416          63712          11492         -52268
   2420.00000000         -18908         -74430          -8943          46986
   2424.00000000         -50980         -41571         -21724          16796
   2428.00000000         -49398         -42736          42426         -67406
   2432.00000000         -23024         -33546          36614          43335
   2436.00000000         -21674          14640         -21784         -38115
   2440.00000000         -21692          48789          45217         -27571
   2444.00000000         -13621         -87322          35293          71555
   2448.00000000          30805          -8223         -84191          62003
   2452.00000000         -10527         -52797         -12152         -41507
   2456.00000000          96997         -15409         -61073          56085
   2460.00000000          13323          -8105          44261          29485
   2464.00000000         -35257          40093          65562           3450
   2468.00000000         -19691          78585          44062          55270
   2472.00000000          43354          81454          77897         -16236
   2476.00000000         -28732           9500          -3078          20018
   2480.00000000          57074           5016          45076         -23182
   2484.00000000          26064          -5898          42031          91445
   2488.00000000           8112          27076         -20597         -32115
   2492.00000000          93144           9000         -63349         -69158
   2496.00000000         -10585          43160          44794          33214
   2500.00000000         -30739         -31278           4251          36382
   2504.00000000          46061         -50817          82886         -13410
   2508.00000000         -34796         -17200           3027           6732
   2512.00000000         -32476          28023         -20244          38718
   2516.00000000          46127         -25965         -37706          -8538
   2520.00000000          31475          67595          56273         -20678
   2524.00000000          -2972          29698         -47323          28268
   2528.00000000          35695         -62586         -15222          13017
   2532.00000000          24705          -6499          32972          41967
   2536.00000000          39203          -9101           7836         -31753
   2540.00000000          -7009          55525          38759          41137
   2544.00000000          34468           4767          70728          10749
   2548.00000000         -10946          71227         -29408          17814
   2552.00000000          62294         -25274          10103          54667
   2556.00000000          49708          46715           5531          51127
   2560.00000000          44087          58366         -12947           1916
   2564.00000000          60822          21331         -11721          15804
   2568.00000000         -20103          19503          71352          13179
   2572.00000000          84967          62076         114380          37413
   2576.00000000         -30264          -1084          22410          -6094
   2580.00000000          10214          15870          78719           7893
   2584.00000000          -7434           5890          32045         -30762
   2588.00000000          16013         -48699          28822          20407
   2592.00000000          11338          27479         -30838         117172
   2596.00000000         -70627          50975          -4550          16003
   2600.00000000          34262         -36589         -75776         -17666
   2604.00000000         -53432          50438          23707         -15669
   2608.00000000         -41550          28958         -85335          39562
   2612.00000000          12572          69864          18959         -18569
   2616.00000000           9638         -61908          22278         -36176
   2620.00000000         -42897           7119           4781         -12537
   2624.00000000         -40511         -29526           9499          -5614
   2628.00000000         -13099         -16188           4186           -374
   2632.00000000         -41183         -18951         -50119         -36966
   2636.00000000          38681          57631         -34529          14129
   2640.00000000         -49937          42834         -28619          16632
   2644.00000000         -39895         -33670          18066          -7908
   2648.00000000           -290          35405         -28463         -36425
   2652.00000000          20946           3416         -46182          15226
   2656.00000000         -15807         -39497          10319          56387
   2660.00000000         -15896          47750          10012          38105
   2664.00000000           1216         -17403         -46707         -31481
   2668.00000000         -38736         -25849         -39011          33592
   2672.00000000          17952          23688         -37349          67150
   2676.00000000          62086          53961          30583         -55767
   2680.00000000         -64011          21259         -14796          47858
   2684.00000000         -35775          23619          -4781           5035
   2688.00000000          30362          -2830         -36065           7446
   2692.00000000         -50606         -23564          53807           6681
   2696.00000000          31475           5339         -52701         -28346
   2700.00000000           -655         -42695         -16498          27213
   2704.00000000          -4025         -69576         -14107           -994
   2708.00000000          39632          19678          12684          46893
   2712.00000000          35382          13228         -12169         -12609
   2716.00000000          17486         -12701         -16540         -52719
   2720.00000000           8828           6464         -24536          46168
   2724.00000000          14653          -5462          27485          -9610
   2728.00000000          42569          55468         -17770         -30610
   2732.00000000         -55013          12655           -427         -49340
   2736.00000000          24912           7124          40754          22251
   2740.00000000          11107         -43963          19867          11594
   2744.00000000         -12447         -44301           8337         -34446
   2748.00000000          19308         -11215         -23520          33152
   2752.00000000         -15151         -20777           9001          26767
   2756.00000000          -9586          -8904           7732         -81461
   2760.00000000         -17357         -13749          -1014         -15671
   2764.00000000          31625          16135         -11876          29294
   2768.00000000          15968         -28761         -22484          41397
   2772.00000000          43177          18519           9816         -20609
   2776.00000000         -16147         -26787          19350          16463
   2780.00000000         -29153         -18752          -7031         -21009
   2784.00000000          13031         -33974         -36452         -27461
   2788.00000000         -56002          -2413          -3354         -33078
   2792.00000000          -8130          10451          -1109         -30401
   2796.00000000         -27733         -30201            636          52479
   2800.00000000         -46981          -4262          44181          13519
   2804.00000000         -11904          -1268         -17955          25723
   2808.00000000          -5779          -4096          34866          -2220
   2812.00000000         -47698          10995          22574         -42166
   2816.00000000         -16949           7884         -10725         -36112
   2820.00000000          -8213         -11432          41005         -45852
   2824.00000000          19031         -12386           8437         -27396
   2828.00000000          -3324            495         -19088           5475
   2832.00000000          53069           3961          27493         -44924
   2836.00000000         -18480          19470          37275         -41110
   2840.00000000          35090           8931         -42104          24407
   2844.00000000         -47227          64268          38329         -11184
   2848.00000000          20435           6113         -24516          -5881
   2852.00000000           6496          60462          72767          18994
   2856.00000000          18089           6541          -1619         -19337
   2860.00000000          36115          28862           -655            644
   2864.00000000         -30638          21710         -39212          15913
   2868.00000000         -18512           -444         -14137          18075
   2872.00000000          13701         -28590          15660         -32710
   2876.00000000         -17569         -14139          15892          -5146
   2880.00000000         -44686         -44486           5581          24743
   2884.00000000          -9033          -7250         -15156         -13066
   2888.00000000          26060          19319          -1531          30840
   2892.00000000         -10536           1486          28133           2587
   2896.00000000          -2771          25030           1897         -20351
   2900.00000000         -19001          -2582         -15378          71305
   2904.00000000           3007         -34245          46775           6976
   2908.00000000           9925         -17163          34824          20655
   2912.00000000           5845          16848          32618          25368
   2916.00000000         -10432          10247          11954           8393
   2920.00000000          38570          23710         -28708          25872
   2924.00000000          12486           2411          -1551         -13238
   2928.00000000          15941         -23574           6480          -7238
   2932.00000000          31999          -2285         -16235         -15862
   2936.00000000         -38440           8154          -4720          -9148
   2940.00000000          25426           8063           4897          -2678
   2944.00000000          20393           3945          13972         -25288
   2948.00000000         -10336           4931           7650           3809
   2952.00000000          28150         -14141         -35629          -3393
   2956.00000000         -29975         -40613           8550         -34657
   2960.00000000         -23253           5353           4512          21147
   2964.00000000         -13694           -377          -6865          14755
   2968.00000000          13928         -23596          14040          16217
   2972.00000000           -287          26669          34638          -4571
   2976.00000000           9741          13074          17671           2595
   2980.00000000         -20681         -27540           2672          -2057
   2984.00000000          -4489         -12027          13972         -15770
   2988.00000000           -794          21601         -14843          -2169
   2992.00000000          12952         -31740          27049         -12475
   2996.00000000         -15192          18262           3649         -23118
   3000.00000000          -9210          16622           4288           1012
   3004.00000000          11863         -13143         -36534           -911
   3008.00000000          21791          -5181           2932          -4977
   3012.00000000          11086            357          20104          11399
   3016.00000000          -9465          11087          -8267          -8518
   3020.00000000           3793           6150           8532          17821
   3024.00000000           3373          20267         -10245          32181
   3028.00000000          20686          -2930         -22760           8837
   3032.00000000          -9018          27306           9609           1667
   3036.00000000           8204         -30913           4571         -28792
   3040.00000000         -29043         -12321           4107         -15015
   3044.00000000          -2196         -34925          18421           7054
   3048.00000000           2763           4473          33200         -18407
   3052.00000000          -4885          -9271          -7830         -13103
   3056.00000000          -5060          21016         -34982          37877
   3060.00000000          -5088           -124           3700           -618
   3064.00000000          -4056          -9910             39          -2837
   3068.00000000           3838          -5828          15739          25012
   3072.00000000          16735          18442            516          34672
   3076.00000000           5785         -37948          -1948          13656
   3080.00000000         -15395          11809         -23984         -14355
   3084.00000000           8205           5490          -4937          15478
   3088.00000000          10632           6587          21839          13292
   3092.00000000           6732           8784          -6312         -31656
   3096.00000000         -24268          16959         -14527           4687
   3100.00000000           7613           5847          15315          -7413
   3104.00000000          18163         -29853           2754         -42140
   3108.00000000         -11135          13558          22221         -14527
   3112.00000000         -23687           7046         -14755         -12882
   3116.00000000           6782          18571          -2019         -19822
   3120.00000000          -8598           3988          -6894          -4814
   3124.00000000          21545          -4859          -3670          19675
   3128.00000000          -4759           2416          17729          23194
   3132.00000000           5228          21194           -261         -12261
   3136.00000000          15439            387          -4559         -17833
   3140.00000000           6785           6043         -18486         -19861
   3144.00000000         -17644          -5397           4955          34912
   3148.00000000          23966           4015          -2988          19131
   3152.00000000         -14057           2167            -34          19421
   3156.00000000          16335         -13596         -37758           6903
   3160.00000000           9436         -11385           5143          -9781
   3164.00000000           -538          20451         -17128          19069
   3168.00000000          19927          -1062          18835          -4323
   3172.00000000         -18219           6695         -22539           6217
   3176.00000000         -16581          24151          -1599          -7685
   3180.00000000          20617           1547          23330           3239
   3184.00000000          -3867           2590          13602           1434
   3188.00000000         -18612          26117          -2661         -12105
   3192.00000000           3859         -18611           6903          -5295
   3196.00000000         -14534           -961          15039          -5611
   3200.00000000          -5337          15589          15552          13947
   3204.00000000           6223          -2947         -29499          -6076
   3208.00000000          12836          19228          12746          -5399
   3212.00000000          29732          16903          -1808          19560
   3216.00000000           -534         -14406           7652            616
   3220.00000000         -14841           5446           2471         -14194
   3224.00000000           4329           3517           5426           8193
   3228.00000000         -10902         -17578          10174          -2224
   3232.00000000          -1137            375         -10196          -1219
   3236.00000000           7454          13738          -8828           -723
   3240.00000000          21417           8551           6260            -17
   3244.00000000          -1859          13805         -13504           8421
   3248.00000000          -5505          26996         -11028           3299
   3252.00000000           4137          24685          12498          -7077
   3256.00000000          11167          26568           -461           1760
   3260.00000000           3574         -18771          20645         -12827
   3264.00000000          -8475          -8207           2059           1762
   3268.00000000          11643           5840           2522          18883
   3272.00000000            634         -24633          -4273          -2274
   3276.00000000           2626         -17381          -9060         -16100
   3280.00000000          -1016          34803           5803           4006
   3284.00000000         -21116          -9655         -12875         -13321
   3288.00000000          11369          -8412         -11864           6788
   3292.00000000          -9477          -2130          17380           5270
   3296.00000000           9228            480          14634         -15175
   3300.00000000           2053           9938           9812         -11092
   3304.00000000           2446            745           9835         -16560
   3308.00000000          -6297          10441           5772           8962
   3312.00000000         -12642           1043         -11300           2636
   3316.00000000          -5852          -7996          -2186           6097
   3320.00000000         -15118           9942          -2607         -31554
   3324.00000000          10589         -24074          -8984         -26305
   3328.00000000          11551         -17309           1331          12044
   3332.00000000           4040         -15656         -18117           3681
   3336.00000000           7314          -4721         -23944          18270
   3340.00000000         -11265          -4546         -10885         -14107
   3344.00000000         -19121         -14375          12603          -5596
   3348.00000000         -15160           1163         -24559         -15968
   3352.00000000           4157          13202          16809          -8946
   3356.00000000         -14276          10858          -8193         -11808
   3360.00000000          -3727           7762          16999          -1152
   3364.00000000          22858         -16804          -4443           2057
   3368.00000000           9763           3245          19149         -14990
   3372.00000000          -1015           -811           4207           9804
   3376.00000000           9976           1291           4384           7023
   3380.00000000           2977             -6           2535          -6430
   3384.00000000            233          -6117          -7654         -16190
   3388.00000000          12527          -7629          -1148          10617
   3392.00000000          13900          13212         -14075            270
   3396.00000000           5839          14048          -4276         -21509
   3400.00000000           5619           2744           9905          -6666
   3404.00000000           5569         -11194           4872           1429
   3408.00000000          13582          -9780          -8333            542
   3412.00000000           1662          13762          -1632          -5560
   3416.00000000          -3324         -18434           6482            -82
   3420.00000000           7998          13511           1024           1679
   3424.00000000          10340           5739            608         -20246
   3428.00000000            105         -13811         -13329          -6685
   3432.00000000           -653          -7024         -18288         -14382
   3436.00000000          10037          -1280           2740           3259
   3440.00000000           9570            534         -26226          -7961
   3444.00000000          -7110          23642         -26372           5051
   3448.00000000           4540          10940          -5902           7617
   3452.00000000          -9110          -1580          -6674           5569
   3456.00000000          -7633          -9772          11510          10570
   3460.00000000           2778           -594           2145           9205
   3464.00000000         -15253          -3663          -4881           4844
   3468.00000000            283          -5758         -24973          -3352
   3472.00000000           7941          -1265             97          -9667
   3476.00000000           4266          -3641           1485         -21682
   3480.00000000           8223           7125          -1314          -2338
   3484.00000000         -19906         -10162           1286          12426
   3488.00000000           4122           1207           2988          -2869
   3492.00000000          -8148           2862           9888            931
   3496.00000000             23           3985          -6775           4443
   3500.00000000           6625           8646          -1241           7620
   3504.00000000           1625         -13139          -1438         -10314
   3508.00000000          -2685           3093          12308           1512
   3512.00000000           7324           -685          -9832          -4650
   3516.00000000          -7531          -1160           4199          -9307
   3520.00000000           3711           8879           7745          -2667
   3524.00000000           7317          -2437           9379            459
   3528.00000000           9352         -15677         -10297           -716
   3532.00000000           3549         -17949           9467          12862
   3536.00000000           2952           6200         -11025          -6580
   3540.00000000           -726          -3181          11937           2846
   3544.00000000          -7919          11107           6621           7256
   3548.00000000          -4429           6945          18894          -3509
   3552.00000000           6222          -2236            760         -10502
   3556.00000000          11002          11244          14147           8608
   3560.00000000            959           -546          -7867          -9002
   3564.00000000           -391           -300          12000           2994
   3568.00000000           7883         -12092          -5737          -7513
   3572.00000000          -3317          11504           4164           4177
   3576.00000000         -12142          -8895           4408           6370
   3580.00000000           8816           2256          -8999         -14309
   3584.00000000          15313         -15659          11653           9767
   3588.00000000         -15511          17870          -8413          -2939
   3592.00000000          -1836          -4287           6686          -3073
   3596.00000000          -9475          -6800          10183           2144
   3600.00000000           1217          -5157          -1986           -158
   3604.00000000           4526          -6899          -1950           4815
   3608.00000000          -2984          -1892          24710          -2153
   3612.00000000          -2467          -5394           1756          -5779
   3616.00000000           -767           -307           1942          -6135
   3620.00000000          -6711          -1642           1792          -1561
   3624.00000000          -2053           7379         -13147           9477
   3628.00000000          -6620           1785           1223           7372
   3632.00000000           9418         -15482           7487          -6373
   3636.00000000          -4408            642          -2940           5047
   3640.00000000           1843           7126          -7039           7407
   3644.00000000           2143          -5902          -2795          -6890
   3648.00000000           1757           6820          -4589           1832
   3652.00000000         -11283           4189           5961           2177
   3656.00000000            372           3421          -8675          14159
   3660.00000000          -7718           1641          -3169            598
   3664.00000000           5105           1881            475         -18057
   3668.00000000          -5282          -6030           8289           2286
   3672.00000000           7030           8516          -7392          -9347
   3676.00000000          -5287          -8284          -9797          -4038
   3680.00000000          -9354           -734            949           1108
   3684.00000000           7225           1021         -12615            788
   3688.00000000           4169          -2303          -2805          -6407
   3692.00000000           2993           3125           -470           3947
   3696.00000000          -6393          -7684         -14170           9035
   3700.00000000          -6809         -10620          -1277          -2172
   3704.00000000          -6767           8913          -7263           6505
   3708.00000000          10331           4183         -13121           -432
   3712.00000000           1991          -5700           3070          -1040
   3716.00000000          -3408          -8776           5399          -4226
   3720.00000000           7833          -6695           7176          -1533
   3724.00000000          -7780          -9663          -8416           -595
   3728.00000000          -8398          -6753           -243           4974
   3732.00000000          -1978          -6421           2603           2774
   3736.00000000          -7775          -9703           4674          -2591
   3740.00000000         -11847          -4629          -2383           1315
   3744.00000000          -4200          -5273           3360          -6123
   3748.00000000           8426          -7121          -2838           4492
   3752.00000000           1775           8799           -739          -8316
   3756.00000000           -655         -12980          -3990           4932
   3760.00000000          -2186           6055           4424             40
   3764.00000000          11577            401           3310           8360
   3768.00000000          -6838           4304          -4812           1483
   3772.00000000          10715          -4748           9017          -6320
   3776.00000000            107          -6728            507           3988
   3780.00000000          -7515           5438          -9064            924
   3784.00000000          -3403          -2124           4576          -5145
   3788.00000000          -1344          -5642           -940            414
   3792.00000000          -5687          13596            -21          -8311
   3796.00000000           4883          -6014           3190          -3475
   3800.00000000           9291           6014           -823           3588
   3804.00000000          -3364          -3515           5878           1091
   3808.00000000           6164           -169          -6449          -6690
   3812.00000000           4587           2272           7930           1880
   3816.00000000          -1126           5552            362           -968
   3820.00000000            355           4837           7936          -5186
   3824.00000000            329          -4939           2552           5763
   3828.00000000           4307            839           5229          -6986
   3832.00000000         -12608           3322           4549          -5456
   3836.00000000          -1216          10739            418          -8387
   3840.00000000          -1344           -583          -1254           5901
   3844.00000000          -2264          -1695          -1999           -570
   3848.00000000           -905           -875          -2661           1981
   3852.00000000           -474           2144           4018           -822
   3856.00000000          -1774            147          -2531          -3639
   3860.00000000          -3955           8175         -11590           -358
   3864.00000000           2442           4623          -3396          -2874
   3868.00000000           -501           3500          -1921          -5754
   3872.00000000          -5786          -5588           2120          -5647
   3876.00000000           -425          -3334          -7596          -2967
   3880.00000000         -11816          -8575          -3713           6599
   3884.00000000           1443           1816           2407          -3958
   3888.00000000           7197           1437          -7500           1729
   3892.00000000          -9866           1936           3382            -71
   3896.00000000            344          -5927          -4686            707
   3900.00000000            771          -5781           2045             23
   3904.00000000          -1252           5547           7731          -6439
   3908.00000000           7976          -3434           5548           -638
   3912.00000000           7355           4955         -10973          -4609
   3916.00000000           3309          -2872           3525          -4813
   3920.00000000          -5370           3043           2218            210
   3924.00000000            524          -2544           2388           7358
   3928.00000000           7154           1032           -278           5661
   3932.00000000           1446           3637          11783           -238
   3936.00000000           5574           5628          -4847          -3775
   3940.00000000           3914          -3365          -1872           2976
   3944.00000000            186          -7105          -2529          -4150
   3948.00000000          -1462           6504          -6831            478
   3952.00000000           5592          -4708         -11031            583
   3956.00000000          -2995           4982           1530           -267
   3960.00000000           2275          -6292         -11059           1639
   3964.00000000           2400           9600          -3402            861
   3968.00000000           1696          -3602           4916         -10783
   3972.00000000            950           -728           -110            191
   3976.00000000          -9251            316           2872           2336
   3980.00000000          -5095           5859          -1050           -981
   3984.00000000          10650           3110            115           -275
   3988.00000000           -141           1465           5531          -3367
   3992.00000000          -1702          -4327           1341            360
   3996.00000000          -3523            316          -2626            853
   4000.00000000          -4767           2398           -975           8371
   4004.00000000           7017            -46           1812          -3921
   4008.00000000           7515           1015           -326           4471
   4012.00000000            572           4559           1317           1367
   4016.00000000           9604           3823            -54           3210
   4020.00000000           1145          -5204           9293           3879
   4024.00000000          -5210          -2426           6585          -1464
   4028.00000000           4903           6167            -73            433
   4032.00000000          -3110           4785          -1078          -1542
   4036.00000000            636           7841           1066            346
   4040.00000000           2796            267          -4282          -5417
   4044.00000000          -2009           -826          -1512          -2735
   4048.00000000          -2317            -34           1452           3172
   4052.00000000          -2350          -1225          -2906           8429
   4056.00000000          -1955           3175           4847           2631
   4060.00000000          -1298            342          -1041          -1644
   4064.00000000           -281           2644          -2316          -1711
   4068.00000000           2394          -5392          -5783          -1684
   4072.00000000          -1470            844          -1949            131
   4076.00000000            336          -7614            323           3266
   4080.00000000           1822           1307          -2208           -627
   4084.00000000           1620           -914           -946           6001
   4088.00000000          -2826           3419           1345           3823
   4092.00000000           -312          -5005           -649          -5254
   4096.00000000          -4329           2984          -3720          -1150
   4100.00000000           3052          -3117           4094          -3282
   4104.00000000           2581           -365            -68           5366
   4108.00000000          -3504           7127          -1738           2510
   4112.00000000            261            654           3964           3746
   4116.00000000           4563          -2280           2653          -1390
   4120.00000000            682          -5543           3078           3940
   4124.00000000           2041          -2105           4124           1886
   4128.00000000           3967           1186          -1741            -61
   4132.00000000             33           1043          -1306           4717
   4136.00000000            -14            561          -2597          -1883
   4140.00000000          -3236           5082          -4020           4030
   4144.00000000           2770          -2081           -133          -1830
   4148.00000000           1119           3585           3620           1406
   4152.00000000           1097           4973          -2230          -1268
   4156.00000000          -7739           2510           3566           1984
   4160.00000000           2046           3294           2331            616
   4164.00000000           2488           1671          -1770          -3863
   4168.00000000           2339          -4713            579           4670
   4172.00000000            845           -609          -6204          -1094
   4176.00000000          -2090          -1168          -3986          -1632
   4180.00000000           2176             53           1781           -968
   4184.00000000           2253            408            868           1699
   4188.00000000           2006           1319           2306           2305
   4192.00000000          -1267            -66            240           3896
   4196.00000000           5602          -2781          -1997            618
   4200.00000000          -3453           -895             59          -1085
   4204.00000000           -216          -6405          -4880           2457
   4208.00000000             64           -387           1008           1990
   4212.00000000           6411            -63            491           1860
   4216.00000000           3830           3106           2198            910
   4220.00000000            -33           -475          -1689          -1674
   4224.00000000           2966           6044          -4713           -381
   4228.00000000           3262           2911            303           -142
   4232.00000000          -3412          -4155           1940          -1175
   4236.00000000          -4035           -525           2078            724
   4240.00000000           -918           1525          -2035            -81
   4244.00000000           2731            161           2755           -820
   4248.00000000            307          -2829           1541            739
   4252.00000000          -1735          -5846          -3403          -1164
   4256.00000000          -1628           -292           2623           1173
   4260.00000000           3911           -755          -2144           3218
   4264.00000000          -1467           3331           -600          -1847
   4268.00000000          -4266          -7401           -922           4484
   4272.00000000           4416           1313           2618           -244
   4276.00000000            503            295           -137          -4021
   4280.00000000            -99          -5527          -2039          -4142
   4284.00000000            533          -2940             66          -1086
   4288.00000000            347           1082          -1565           2192
   4292.00000000          -3792          -1933            800           -584
   4296.00000000           4301           4236          -4724          -1734
   4300.00000000           2490           1988          -2065          -2400
   4304.00000000             42           -972           3199           -185
   4308.00000000           -707          -3561            -44           1754
   4312.00000000            816           1054          -1671           2229
   4316.00000000            417          -2926           1159          -1391
   4320.00000000          -2738           -904            747          -2789
   4324.00000000           2846           4490          -4395          -1348
   4328.00000000           2456           1980           -729          -1185
   4332.00000000          -1492            803            236           -186
   4336.00000000          -1967          -1472           1251           1549
   4340.00000000           -409            886           -667          -3434
   4344.00000000          -1087           1914          -3718           -331
   4348.00000000           -446          -3121           1158          -2134
   4352.00000000           1569          -1217            794            153
   4356.00000000          -3955           -573           1559           2080
   4360.00000000          -2541          -4611          -1230            758
   4364.00000000          -4828           -491           -937          -1351
   4368.00000000          -1431           1114          -4734           1887
   4372.00000000           2852           2433           1287          -2382
   4376.00000000            363          -1362            809           2822
   4380.00000000          -2338           -550          -3380            327
   4384.00000000          -1170          -1586            524           1331
   4388.00000000            -59          -1419           2467          -3794
   4392.00000000           2711           -461           -573          -1574
   4396.00000000           2177           -280           2323            -14
   4400.00000000          -1031           2586           1961             74
   4404.00000000           -961            416           -247             28
   4408.00000000           -161            891          -1890          -3723
   4412.00000000           -541          -3022          -1220           2917
   4416.00000000          -1033           -592           1323          -3877
   4420.00000000          -4450           -469          -2305           -650
   4424.00000000             79           -717            334          -2418
   4428.00000000          -1588          -1228            -41          -2479
   4432.00000000           2641          -1328          -2489             86
   4436.00000000            208            300          -1759            290
   4440.00000000          -2216           2604          -1115           1729
   4444.00000000            691            642           -412          -2063
   4448.00000000            -48           -656           1094           -693
   4452.00000000           -742            295          -2169          -2730
   4456.00000000          -1285          -2409           4799          -1119
   4460.00000000            331           1337            -34            971
   4464.00000000          -1741           -351           -322           1336
   4468.00000000           -837          -1879           -697          -2994
   4472.00000000           -919          -1968           2249          -1171
   4476.00000000          -2287          -1305           -421          -1113
   4480.00000000           3123           1605          -2587          -1754
   4484.00000000            389           -208           1454           -135
   4488.00000000           2939           1053          -2902          -1692
   4492.00000000           1112           -769            472          -1601
   4496.00000000          -1561          -1134           1886           -760
   4500.00000000          -2142           -924           -333          -1181
   4504.00000000            516            590           1434           1191
   4508.00000000            836           1295          -1263            264
   4512.00000000          -1879           2523          -1970           -703
   4516.00000000           1432          -1197          -1158           2496
   4520.00000000           -496            560          -2313          -1648
   4524.00000000           1832            822          -1701            481
   4528.00000000           3120           2357          -2790            520
   4532.00000000          -2152            569            285          -2591
   4536.00000000           1185           1579          -3746           -432
   4540.00000000            105          -1535          -1660            940
   4544.00000000           1111            -81            386           -447
   4548.00000000            994            -16           -628          -1685
   4552.00000000            397          -1752           -372           2239
   4556.00000000          -1637           -592          -3106          -1742
   4560.00000000          -1139          -1365            880            705
   4564.00000000          -2126           -120           3220          -1015
   4568.00000000           -299            851           -994           -334
   4572.00000000           1071          -2839            871           1522
   4576.00000000          -2796           1745           2606           3304
   4580.00000000           1712          -1493           -447           -391
   4584.00000000            650          -2876            461           -127
   4588.00000000           1661           1376            733           -189
   4592.00000000           1157          -2735           -935           -322
   4596.00000000          -2251          -2450          -2655           -179
   4600.00000000           -583           -428          -2362          -2100
   4604.00000000          -1333             68             31            619
   4608.00000000           -289           -522          -2559          -1682
   4612.00000000           2298          -1153            972            571
   4616.00000000           -746            768           1639           2121
   4620.00000000           -259             60            192          -1255
   4624.00000000           1009           -591           1262           -233
   4628.00000000           1074          -2363             30           1794
   4632.00000000           -376          -2748          -1494           1091
   4636.00000000          -2029            137          -1597           -428
   4640.00000000            307          -2117           1291           2235
   4644.00000000           -183           -754           -141          -1559
   4648.00000000           -850            104           2614            563
   4652.00000000            430           -565           -404            -35
   4656.00000000          -1399           1660          -1035           1271
   4660.00000000           1564            532            812           1296
   4664.00000000            -20          -1186          -1202          -1172
   4668.00000000           1442           1237             -9           1805
   4672.00000000            689            187           1101            482
   4676.00000000           -984            770            663           1453
   4680.00000000           2368             15           -625           3098
   4684.00000000           1177           1494            133            -65
   4688.00000000           -788          -1717            374             74
   4692.00000000            582            251           -261           1840
   4696.00000000           -131           1452           2732          -2158
   4700.00000000           1230           -565            674           2955
   4704.00000000           1864           1022           -484           1807
   4708.00000000          -2277           1354           2210           -942
   4712.00000000           1047            199           -927            671
   4716.00000000           -726          -1318          -1685            517
   4720.00000000           -440            288           2699            200
   4724.00000000           -165            117           -626           -235
   4728.00000000           1110           2606           2537           3014
   4732.00000000            488           1546           -565          -1163
   4736.00000000            436            888            684            956
   4740.00000000           -721          -1330           -397            157
   4744.00000000           2255           -523            203            339
   4748.00000000           -528          -1609            -19           -275
   4752.00000000          -1078           1447           -812           2702
   4756.00000000          -1328            209            495            -19
   4760.00000000           -610            117            829            909
   4764.00000000           1438            371           2050            711
   4768.00000000           1023          -1277           1065           -121
   4772.00000000           -210           -888            895           -223
   4776.00000000            673           1282            805           -986
   4780.00000000           2194          -1659            766           -283
   4784.00000000           -139           2203           -259            151
   4788.00000000           -117          -1114            808           -902
   4792.00000000            411            -51            693            715
   4796.00000000          -1308            520            567           1681
   4800.00000000           -640            412            168            667
   4804.00000000          -1186           1819           -296           1064
   4808.00000000           1675          -2095            453            136
   4812.00000000           -718           1298           -448            126
   4816.00000000            554           -690            992          -2643
   4820.00000000          -1360            447             21           1334
   4824.00000000            -79           1602          -1791            152
   4828.00000000            788          -1928           -341           -107
   4832.00000000           -190           1692           1402           1789
   4836.00000000           -827           -122          -1383            794
   4840.00000000           -159              1          -1110           1079
   4844.00000000           -658            356           1463             67
   4848.00000000             60          -1043           -280           1404
   4852.00000000            672            830           2616           1311
   4856.00000000           1220           -149           -339           -529
   4860.00000000           -499          -1685            663          -1221
   4864.00000000           -216           -706          -1372           -268
   4868.00000000            266            362           1992           1205
   4872.00000000            241          -1062           -300           1428
   4876.00000000            110          -2370           1029            371
   4880.00000000           2123           -346           -974           -231
   4884.00000000            914            879           -257           -983
   4888.00000000           -124            -23           -127            -26
   4892.00000000            870            983            208           -647
   4896.00000000            603           1049           1597           -375
   4900.00000000             15           -757          -1342           -578
   4904.00000000           -357            508            818            504
   4908.00000000           -459            228           -684          -1516
   4912.00000000           -268            761             -0           -711
   4916.00000000           -641            225            294           -826
   4920.00000000           -587          -1187           -698          -1840
   4924.00000000           -413          -1599            730            677
   4928.00000000           -764           -728           -371           1690
   4932.00000000            394           -621            -32           -835
   4936.00000000          -1576            581           1365           -642
   4940.00000000           1449          -1697           -939          -2016
   4944.00000000           -411           -255            321           -566
   4948.00000000          -1215           -174            982            234
   4952.00000000            201           1211           -515           -573
   4956.00000000           -137            529           -943            107
   4960.00000000          -2092          -1242           -516           -222
   4964.00000000           1158           -573           1007            594
   4968.00000000            215            618            399           -475
   4972.00000000            842            194           -595           -259
   4976.00000000            460           1028            958           -832
   4980.00000000            289           -777            309           -414
   4984.00000000            365           1222           -936          -1154
   4988.00000000           1388           -553           -595           -409
   4992.00000000           -403           -290            465            591
   4996.00000000            273            907           -499           -769
   5000.00000000             13             80            146            -27
   5004.00000000             74           -286            171          -1002
   5008.00000000          -1063            522            360          -1916
   5012.00000000           -235            519           -412            904
   5016.00000000            711           -519           -512            170
   5020.00000000            351           -633          -1000           -336
   5024.00000000            -53            645           -440           -646
   5028.00000000           -291            138            307           -774
   5032.00000000            114            -81            152           -649
   5036.00000000            308           -324            186            180
   5040.00000000          -1599           -637           1261             -4
   5044.00000000          -1097            531            440            165
   5048.00000000           -744           -638            969           -424
   5052.00000000            372           -259           -188            635
   5056.00000000            147           -199            550             75
   5060.00000000            -33           -396           -364            915
   5064.00000000           -386           -898            132           1005
   5068.00000000            246           -267           -573           -539
   5072.00000000           -700            136           -217             -1
   5076.00000000           -584           -913            -26           -145
   5080.00000000           -360             91            883             11
   5084.00000000            374             41            -93           1154
   5088.00000000           -158           -206            150           -336
   5092.00000000           -513            604           -164           -851
   5096.00000000           -790            579           -211           -626
   5100.00000000            804             55            731          -1577
   5104.00000000           -556            136           -279           -182
   5108.00000000            540           -849           -993            483
   5112.00000000             -6           -468            731            207
   5116.00000000           -450          -1362            902           -530
   5120.00000000           -715            164           -162           -496
   5124.00000000           -199            -75           -221           -317
   5128.00000000           -439            416            244           -942
   5132.00000000           -574            130           -385           1570
   5136.00000000            793            359            749            -89
   5140.00000000           -561            884            147           -470
   5144.00000000             40            221           1164           -721
   5148.00000000           -275            316            502            766
   5152.00000000           -166            -66          -1030           -133
   5156.00000000           -342             47            368           -701
   5160.00000000            777            -70           -243           1188
   5164.00000000            362           -219          -1607           -133
   5168.00000000            216              5             54            -74
   5172.00000000          -1068           -506           -311            504
   5176.00000000            309            310            419           -220
   5180.00000000            118            637           -293            117
   5184.00000000             78            229           1308            356
   5188.00000000           1027            -35             57             66
   5192.00000000            433           -397           -310            421
   5196.00000000            134            762            320            392
   5200.00000000           -505            792            535             95
   5204.00000000            422            487           -458           -240
   5208.00000000           -258           -123           -556           -353
   5212.00000000            666           -853           1464            219
   5216.00000000           -229           -423            -89           -656
   5220.00000000            135            993           -150           -222
   5224.00000000           -188            320            -86           -266
   5228.00000000             79            679            391             95
   5232.00000000            974            638            510            -77
   5236.00000000           -437            200            320            432
   5240.00000000            739             87            805            683
   5244.00000000            211           -297            -55            382
   5248.00000000           -225            -52            303            223
   5252.00000000            641              0            171             15
   5256.00000000            235           1791           -151           -498
   5260.00000000           -626           -205            137            641
   5264.00000000            255            366            672           -700
   5268.00000000            215            -10           -501            190
   5272.00000000            482           -228           -768            230
   5276.00000000            666            170           -429            179
   5280.00000000            730            552           -168            352
   5284.00000000           -220           -384           -342            428
   5288.00000000           -578            -56            345             76
   5292.00000000            302            792            252            182
   5296.00000000             66           -430           -257            296
   5300.00000000            457            487            692           -778
   5304.00000000           -767            352           -445            252
   5308.00000000            656            329           -581            349
   5312.00000000            649            683           -662           -281
   5316.00000000           -350            474           -467            -31
   5320.00000000            562            694            344           -345
   5324.00000000            600           -347           -632           -306
   5328.00000000            197           -321            -44            773
   5332.00000000           -180            721            453           -410
   5336.00000000           -216            275           -417             39
   5340.00000000            -51           -435            375           -635
   5344.00000000            681            402           -149           -144
   5348.00000000            168           -910             20            430
   5352.00000000           -265           -520           -200           -220
   5356.00000000            335             13            737           -201
   5360.00000000             -6           -205             26            217
   5364.00000000            718            303            725            -79
   5368.00000000            114           -226            889             82
   5372.00000000             -1            328            261           -123
   5376.00000000             88           -414           -581            -95
   5380.00000000            171           -251             91            427
   5384.00000000           -335            141           -832           -439
   5388.00000000            690             57           -685            276
   5392.00000000            140           -827           -110           -232
   5396.00000000           -232           -169           -487            332
   5400.00000000            302              3           -924            305
   5404.00000000            312             75            278           -568
   5408.00000000            -67           -537             98            550
   5412.00000000            -76            154           -474            307
   5416.00000000            538            301            -49           -721
   5420.00000000            -23           -448           -361           -112
   5424.00000000             14            149           -173            289
   5428.00000000            222            178           -346           -163
   5432.00000000            197           -652           -162            627
   5436.00000000             23           -126            335            225
   5440.00000000             77           -441             62           -258
   5444.00000000           -483            320            -83             23
   5448.00000000           -369            208           -168           -476
   5452.00000000           -338           -167            411           -289
   5456.00000000           -271           -220           -374           -122
   5460.00000000            180           -193             12            275
   5464.00000000            313           -370            106           -401
   5468.00000000           -516           -242           -348           -294
   5472.00000000           -510            240            385           -502
   5476.00000000            183            295            -28            -59
   5480.00000000           -398             -3           -425           -381
   5484.00000000            175           -307            395            368
   5488.00000000           -159           -493           -565            418
   5492.00000000           -333             -2           -597           -221
   5496.00000000            203            115           -628             -2
   5500.00000000           -540           -569           -288            277
   5504.00000000           -184           -363           -105           -158
   5508.00000000            131            362            545           -387
   5512.00000000           -184             31           -444            -25
   5516.00000000           -131             83            -17             89
   5520.00000000             76           -301           -525              9
   5524.00000000            225             -8           -179           -235
   5528.00000000            -28             -9            422            333
   5532.00000000            116           -124            286            -12
   5536.00000000           -374            137             81           -378
   5540.00000000            345            -10            -28           -100
   5544.00000000            -75            203             21            527
   5548.00000000            814            115            286           -114
   5552.00000000            -82            -71            -85           -217
   5556.00000000           -182            164             74            -74
   5560.00000000             96            141            347            -50
   5564.00000000           -169            335           -714            398
   5568.00000000           -123            360           -183           -165
   5572.00000000           -109           -109             -1            -23
   5576.00000000           -205             22           -521           -334
   5580.00000000            245             43            -44              8
   5584.00000000             72           -260             -4            325
   5588.00000000           -569             30             33            162
   5592.00000000            -41            126            123           -135
   5596.00000000           -286            257            -50             48
   5600.00000000            554            -48           -331            -60
   5604.00000000            297             83            199           -193
   5608.00000000             11            503            299            -53
   5612.00000000           -109            193            -83           -130
   5616.00000000            175             52            130             90
   5620.00000000            167           -154            342             82
   5624.00000000            141             93             38           -321
   5628.00000000            -25             20           -140            318
   5632.00000000            404            116            409            286
   5636.00000000           -279            366            124             13
   5640.00000000            605           -243             16            178
   5644.00000000             -1            157           -215            -29
   5648.00000000             53           -181            -43           -251
   5652.00000000            140             -7           -648           -203
   5656.00000000            112            140            387           -183
   5660.00000000            194            217            -60            485
   5664.00000000           -136            181            369            -92
   5668.00000000            355            -93            146            577
   5672.00000000            159             72           -325            139
   5676.00000000             18            470           -345            -22
   5680.00000000              8            112            -94            286
   5684.00000000            120            466            -34            273
   5688.00000000             44            237           -123            177
   5692.00000000            171            -77            281             80
   5696.00000000            163            501            152            -16
   5700.00000000            280             -4            -50            477
   5704.00000000             69            264            322           -191
   5708.00000000             51            181             96             52
   5712.00000000            243            198            122            278
   5716.00000000           -257            303            306            300
   5720.00000000           -242            -50            152            266
   5724.00000000             57             45            338            417
   5728.00000000            -26              4            154            125
   5732.00000000            218            -71           -163            204
   5736.00000000            -30            148            133             69
   5740.00000000            -57           -200             28            334
   5744.00000000           -148            -13            256            412
   5748.00000000             78            -27           -146            -47
   5752.00000000            302            342            295            184
   5756.00000000           -271             -2           -264            149
   5760.00000000            245            335            127            180
   5764.00000000           -179             50            -93            354
   5768.00000000            246            174            251             31
   5772.00000000            108            153            329             92
   5776.00000000           -276             -0             88           -140
   5780.00000000            165           -110            178            233
   5784.00000000            372            142            -19            126
   5788.00000000            146            229            -16           -243
   5792.00000000             24             98             26           -541
   5796.00000000             -8              3            166            287
   5800.00000000            267           -338            -99           -173
   5804.00000000            -92            -43            135            182
   5808.00000000            344            440           -174            174
   5812.00000000            101            424            372            -18
   5816.00000000            101             72             61             78
   5820.00000000            177             61            325             -4
   5824.00000000             76           -114            134             29
   5828.00000000            301             83           -212           -184
   5832.00000000           -158             94             69           -110
   5836.00000000            356             60           -233            256
   5840.00000000            -17            489              1             53
   5844.00000000             29           -166             99             47
   5848.00000000            213           -118             -8           -172
   5852.00000000             86            113            160            -32
   5856.00000000             92           -259            153             82
   5860.00000000            -27            185            200             38
   5864.00000000           -297            -56             19            126
   5868.00000000            160             34           -154            256
   5872.00000000            177            -56            108           -105
   5876.00000000            177             -7            194            -77
   5880.00000000            -14            117             59             16
   5884.00000000             71            -45            171             33
   5888.00000000           -199           -233           -129           -201
   5892.00000000            377             58             70             69
   5896.00000000            -20           -298             41             82
   5900.00000000           -347              1            185            202
   5904.00000000           -182            343            166             17
   5908.00000000            -67           -161            110            126
   5912.00000000           -153            116           -121             74
   5916.00000000            -62            -49            -64            186
   5920.00000000             30           -144           -243             82
   5924.00000000            -12            -75            171           -201
   5928.00000000            187             48            -50           -100
   5932.00000000           -121           -138           -134             91
   5936.00000000            103             44            -49            -52
   5940.00000000            -65           -108           -111           -185
   5944.00000000           -218            151            -56             43
   5948.00000000           -276           -102             76             10
   5952.00000000           -111           -102            -32             -7
   5956.00000000           -137            100             -0             -6
   5960.00000000             25            108           -164            -58
   5964.00000000           -377             -2           -161            -82
   5968.00000000           -134            144           -260            -51
   5972.00000000            -87           -164           -277            -51
   5976.00000000            128           -165             42            -94
   5980.00000000           -388           -228           -162              4
   5984.00000000            145            107           -197            -15
   5988.00000000             87             70            144            -39
   5992.00000000           -219             35            347             34
   5996.00000000            172           -201           -283           -115
   6000.00000000             12           -416           -155             26
   6004.00000000           -237           -178            162           -134
   6008.00000000           -305            -75           -276            -83
   6012.00000000            100            -23           -280            101
   6016.00000000            -43            100            -76            253
   6020.00000000            189             34           -222           -241
   6024.00000000           -170             22           -212             92
   6028.00000000           -113           -121             85           -102
   6032.00000000            -67           -149           -156             69
   6036.00000000            -60             34            -15             15
   6040.00000000           -154            -37            -48              2
   6044.00000000           -132            -85            -90           -188
   6048.00000000           -272            -16              5            -84
   6052.00000000            -53            -34            115           -108
   6056.00000000            -31           -179             16           -139
   6060.00000000            118            -47             50            -30
   6064.00000000            -37             90             47           -144
   6068.00000000             60            -87           -193           -127
   6072.00000000             31           -275            -34             30
   6076.00000000           -122             31            219            -92
   6080.00000000              3             31           -130            117
   6084.00000000             24             -9           -161            119
   6088.00000000            102           -135           -116            -56
   6092.00000000             98           -103            -99            -13
   6096.00000000            -42             -8            176            -66
   6100.00000000            113             -9            -14             35
   6104.00000000            -50            -55            -62            226
   6108.00000000            108           -118            -68            160
   6112.00000000            -64           -140             32           -157
   6116.00000000            136             96            -75             -4
   6120.00000000           -128           -143           -173             15
   6124.00000000            -85             75           -217             92
   6128.00000000             91            -31            -68            -35
   6132.00000000            -48            185              6             95
   6136.00000000            114            194            179             86
   6140.00000000             -0             92            -11            -36
   6144.00000000             30            139             10              6
   6148.00000000            -99            158            124             60
   6152.00000000            105             67            -74             47
   6156.00000000           -150             52             24            -78
   6160.00000000            127            114             19             41
   6164.00000000            -33            -18            156              2
   6168.00000000            115            126             90             27
   6172.00000000           -148            127             11             13
   6176.00000000            161              6             64           -100
   6180.00000000             84            -33            120             82
   6184.00000000            200             25            188            133
   6188.00000000            177            -75             45             80
   6192.00000000           -107            -26            -20            -45
   6196.00000000           -159            -29             75              9
   6200.00000000            130            -24            -21            121
   6204.00000000            -13             69             45             89
   6208.00000000             42             37            -38             88
   6212.00000000            117             69            -65             20
   6216.00000000             56              5              8            144
   6220.00000000             13             -6           -104           -104
   6224.00000000           -118            -56             30             65
   6228.00000000             13             96            -97             45
   6232.00000000             23            -97             20             67
   6236.00000000             68            -56            -86            -62
   6240.00000000             26             34             16             31
   6244.00000000            -64            103             -3             -2
   6248.00000000           -109           -127           -306            -65
   6252.00000000            -14            190             65           -145
   6256.00000000             29            -81            -13             -3
   6260.00000000             -2           -124            -10            117
   6264.00000000            -76           -168            -39             39
   6268.00000000             40            101             21             14
   6272.00000000            -24            -93            -28             68
   6276.00000000            -53             12             13             36
   6280.00000000           -119           -212            118           -154
   6284.00000000             -1            -96              6            -54
   6288.00000000            -28             32            -20            -48
   6292.00000000            -87            135            -71            -16
   6296.00000000            -21            -59            -35            -59
   6300.00000000             10           -133            -47             22
   6304.00000000              6            -69           -129            -70
   6308.00000000           -144            -47             -8            -60
   6312.00000000             -2           -105            -68              5
   6316.00000000            -41            -70            129           -100
   6320.00000000            -60            -55             41             44
   6324.00000000            -59             -1             -8            -21
   6328.00000000            150           -105              1             -1
   6332.00000000             -5             68              8             34
   6336.00000000            -97            -20             26            -46
   6340.00000000             -8            -28             77            -43
   6344.00000000             57            -35             18            -26
   6348.00000000             37             -8             93            -52
   6352.00000000           -112             15            -40             60
   6356.00000000            -39            130            -42            158
   6360.00000000             -6             -5             14           -108
   6364.00000000            -42             90             -5              5
   6368.00000000             50             83             47             58
   6372.00000000            -69             40             14             69
   6376.00000000              2             28            -80             26
   6380.00000000             14            -56             21            110
   6384.00000000             -4             38             75             28
   6388.00000000             25             47            -24             89
   6392.00000000           -168            -35            -12           -123
   6396.00000000           -123              9             86            -90
   6400.00000000             18             -0            -53            -74
   6404.00000000            -38            -15            -34            -38
   6408.00000000            -36           -137             83            -59
   6412.00000000            -66             -8             15            -45
   6416.00000000             91            -42             28             65
   6420.00000000            -12             75            -26            -11
   6424.00000000              5            -98            -19              9
   6428.00000000            -39             36            -36           -184
   6432.00000000             16            -12            -27             72
   6436.00000000              1            -61            -20             97
   6440.00000000             18            -38            -74            -21
   6444.00000000            -92            -16              3            -56
   6448.00000000             78             -8            120             30
   6452.00000000              3             62            -16             39
   6456.00000000              7             45            -23             -2
   6460.00000000             22             38            -44            -14
   6464.00000000            -37             51            -97           -183
   6468.00000000           -132            -59             61             29
   6472.00000000            -39            -17             13             57
   6476.00000000            134            -37             34             35
   6480.00000000             48              5             33            -44
   6484.00000000            -14            -33             46             34
   6488.00000000            -20            -56            110            -28
   6492.00000000            125            -28             -4            -46
   6496.00000000              1            -60             62            -63
   6500.00000000             -5             78            -13             15
   6504.00000000              7           -105            -39             24
   6508.00000000              9             -9            -50             38
   6512.00000000             80            -63            -36            -39
   6516.00000000            -33            -23             76             90
   6520.00000000            -50             65            -79             67
   6524.00000000            -54            -94             55             20
   6528.00000000            -70            -57             28              4
   6532.00000000             31             16             26            -13
   6536.00000000             24             25             66              6
   6540.00000000             39            -44             21             36
   6544.00000000             27             64             16            -41
   6548.00000000            -49            -52             40            -54
   6552.00000000             16            -24            -31             18
   6556.00000000             99              2             75            -99
   6560.00000000            -32            -10            -47             42
   6564.00000000             24            -53             58            -23
   6568.00000000             19            -20             28             46
   6572.00000000              7            -96             10             13
   6576.00000000            -31            -36            -50             37
   6580.00000000             19             29             35             33
   6584.00000000              9             16            -49            -37
   6588.00000000            -38            -36             43              7
   6592.00000000             51             52             16             -3
   6596.00000000             67            -50            -19             14
   6600.00000000            -45             20             21             35
   6604.00000000             17             46             59              5
   6608.00000000            -68             51             15             13
   6612.00000000              6            -60            -28            -12
   6616.00000000              6            -29             44            -53
   6620.00000000           -108              9           -103            -26
   6624.00000000            -67             22            -12             16
   6628.00000000             16             64             70            -70
   6632.00000000             -2            -33             58             28
   6636.00000000            -76             -9             87              6
   6640.00000000             21             52            -68             60
   6644.00000000             24              7             27            -66
   6648.00000000             16            -45             23            -14
   6652.00000000            -35             59             44              2
   6656.00000000             28              2            -62            -57
   6660.00000000            -25             64             45            -25
   6664.00000000            -24             27             20            -66
   6668.00000000             41             12            -28             34
   6672.00000000             62             69             80              5
   6676.00000000             16             43              0            -22
   6680.00000000            -13            -63              5            -57
   6684.00000000            -26            -10             37             -2
   6688.00000000             57            -55              2            -21
   6692.00000000            -55            -20            -20             -9
   6696.00000000            -10            -12             25             -7
   6700.00000000            -29            -30            -27            -83
   6704.00000000            -30            -58            -26             12
   6708.00000000             21            -13            -26             -5
   6712.00000000            -18            -18             -3             -5
   6716.00000000             54             -8            -19             -7
   6720.00000000              2             26            -75            -28
   6724.00000000              3             -6            -37            -14
   6728.00000000             53             37              3            -62
   6732.00000000             69            -38             35            -32
   6736.00000000             45            -21            -29             21
   6740.00000000            -39             -3            -84             22
   6744.00000000            -56            -17            -28             23
   6748.00000000            -17            -47             15             41
   6752.00000000            -22            -70             38            -25
   6756.00000000             -2            -58             34             -5
   6760.00000000            -26             14            -65            -26
   6764.00000000             -5            -29            -21              3
   6768.00000000             39             13             16            -22
   6772.00000000             30            -47            -19              4
   6776.00000000            -17            -30             48             20
   6780.00000000             45             33            -38             27
   6784.00000000              4             -7              1             -9
   6788.00000000             10            -21             -4            -36
   6792.00000000             57              2              1            -11
   6796.00000000            -11             -0            -33            -23
   6800.00000000            -27             17             -2             -9
   6804.00000000              4            -22            -40             13
   6808.00000000             17             -5            -31             -3
   6812.00000000             31            -76             16              2
   6816.00000000             19            -27             24            -16
   6820.00000000              5            -46            -38              5
   6824.00000000            -16              2             46             18
   6828.00000000            -15             16             -8             24
   6832.00000000            -10              2             34             63
   6836.00000000            -30            -25              6            -59
   6840.00000000            -23             13             -7            -75
   6844.00000000            -32             -4            -66             19
   6848.00000000            -19            -31             30            -12
   6852.00000000            -19             56              4            -53
   6856.00000000            -13             -1             59             62
   6860.00000000            -67             -6             -5            -14
   6864.00000000             34            -61             36              5
   6868.00000000            -19              9             29              5
   6872.00000000            -29             12            -54            -21
   6876.00000000            -15              2            -48             16
   6880.00000000             28            -40            -38             23
   6884.00000000            -22             20             -2            -21
   6888.00000000             16             -8              0            -19
   6892.00000000             -2             13            -17            -20
   6896.00000000             11             12            -22            -33
   6900.00000000             18            -26             11            -25
   6904.00000000            -15             39             40             -6
   6908.00000000            -12            -26             25             -0
   6912.00000000            -37              1             16             11
   6916.00000000              2            -22             19            -25
   6920.00000000            -45            -17              4             40
   6924.00000000            -38            -43            -12             -5
   6928.00000000            -14            -12              1            -11
   6932.00000000            -12              9             24             41
   6936.00000000              2             -6             14             -3
   6940.00000000              0             -1             21             12
   6944.00000000             20              2            -11            -23
   6948.00000000            -25             12             20            -24
   6952.00000000            -18             11            -10              0
   6956.00000000            -29            -28            -11             -8
   6960.00000000              9            -32            -18            -61
   6964.00000000            -37            -21            -30            -41
   6968.00000000            -15             -7             -1              5
   6972.00000000            -17            -33              7             -3
   6976.00000000            -16             42             19            -11
   6980.00000000              2            -30              6             18
   6984.00000000            -14              6             -5            -21
   6988.00000000             14            -22             -5            -21
   6992.00000000             11             22            -17             -5
   6996.00000000            -22            -25             -2             35
   7000.00000000             14              4             12             23
   7004.00000000              4              7            -38            -45
   7008.00000000            -10            -21            -22            -27
   7012.00000000            -22            -34            -28              2
   7016.00000000            -34              5             23            -29
   7020.00000000            -37             36             59             19
   7024.00000000            -24            -14             -1             -0
   7028.00000000             17            -44             28            -29
   7032.00000000             -7            -26             20              4
   7036.00000000             12            -23              4              3
   7040.00000000             23            -20              5              6
   7044.00000000             50             16             27             -2
   7048.00000000            -27            -25             20             35
   7052.00000000            -26             -1             34            -13
   7056.00000000             -3             27            -28            -20
   7060.00000000              9            -23             10             -1
   7064.00000000             12             17             11             19
   7068.00000000            -19            -11            -44            -22
   7072.00000000            -15             -3              1             12
   7076.00000000              9             20              3             17
   7080.00000000             25            -19            -17             12
   7084.00000000              2             11             19            -21
   7088.00000000              3             -1            -23              4
   7092.00000000              8            -15              2             -2
   7096.00000000             -8            -16             -3              2
   7100.00000000             15              9             25             16
   7104.00000000             34             17            -34             18
   7108.00000000              8             28              4             17
   7112.00000000              6             37             -2             -8
   7116.00000000             11             -2             11            -11
   7120.00000000             17             -4             -1              3
   7124.00000000             -8             -9             34             13
   7128.00000000            -19             -1              5             27
   7132.00000000              4             18              6            -17
   7136.00000000             -3             20             -7             -1
   7140.00000000             11            -10             12            -22
   7144.00000000             17            -18              5             -8
   7148.00000000             -2              9              7             10
   7152.00000000             22              4            -16            -31
   7156.00000000            -10            -15             34             11
   7160.00000000             -3            -16              2             10
   7164.00000000             -1             18             20              6
   7168.00000000            -19             -6             16              9
   7172.00000000             -3              6            -17             17
   7176.00000000            -15            -25             27             -4
   7180.00000000             27            -22              7             -1
   7184.00000000             -8             27              3              4
   7188.00000000              7            -29              1             14
   7192.00000000             13             25             -1             13
   7196.00000000              1             -1             -4             18
   7200.00000000            -18            -10             28             -4
   7204.00000000            -38             16             35              5
   7208.00000000              9             -7            -10            -16
   7212.00000000              9             -0              3            -14
   7216.00000000             -7             11            -17             -9
   7220.00000000            -12             22             15              6
   7224.00000000              4            -41             31            -27
   7228.00000000            -15             -2            -30              7
   7232.00000000              5             -2              2              6
   7236.00000000             18            -17             14              2
   7240.00000000            -16              0             27             -9
   7244.00000000            -11             24             -6             -7
   7248.00000000              1              4             20            -16
   7252.00000000             -0              2             15              2
   7256.00000000              7              7            -16             -6
   7260.00000000            -15             -9            -11              1
   7264.00000000              5             -1              7              2
   7268.00000000              3              4             -7             -4
   7272.00000000              8            -11             24             -6
   7276.00000000             10              0             17             -0
   7280.00000000              3              9             -1             -0
   7284.00000000             16             27             21            -11
   7288.00000000              6             27              1             -9
   7292.00000000             -1             19             -1              0
   7296.00000000            -17              3             15             -5
   7300.00000000             14             16              6              4
   7304.00000000              8            -10            -13             11
   7308.00000000             -6            -15            -11             11
   7312.00000000             -9              5              4              9
   7316.00000000             16              8             20              4
   7320.00000000              6              2            -10            -13
   7324.00000000            -12              9             -4             24
   7328.00000000             -5              4             -5              3
   7332.00000000             -2            -10              5              5
   7336.00000000             -0             18             12             -1
   7340.00000000             19             -1             -7            -13
   7344.00000000             -9             12              4             25
   7348.00000000             16             -4             16            -21
   7352.00000000              4              7             -3             -6
   7356.00000000             -2             -0              3             -5
   7360.00000000            -16              2            -17             14
   7364.00000000             -4             -2             14             -3
   7368.00000000            -12              9             15            -11
   7372.00000000             -1            -15             13             -1
   7376.00000000             11              3            -22             -4
   7380.00000000             19              5              8              3
   7384.00000000             -5             -7              2            -15
   7388.00000000            -11            -12             -9             16
   7392.00000000             -4             14             -2             22
   7396.00000000             18              5              7            -12
   7400.00000000            -12              0              7             -9
   7404.00000000            -10              8             11              9
   7408.00000000             -2             -7             -5             -7
   7412.00000000             11             -1             12             17
   7416.00000000              0            -12             17            -23
   7420.00000000             -6             -2            -14              2
   7424.00000000             16             11            -16             24
   7428.00000000              0            -19              9             -7
   7432.00000000             -6              2             -4             10
   7436.00000000              1            -12              3             12
   7440.00000000             -7             -5            -12             -2
   7444.00000000              6             -2             19             -3
   7448.00000000            -10              1              2              1
   7452.00000000             16              8            -26              7
   7456.00000000            -17            -13              1              5
   7460.00000000             12              3             11            -14
   7464.00000000             18             12             -2            -10
   7468.00000000             16              3             -4            -13
   7472.00000000              1            -10              5             -9
   7476.00000000              7              7             -4             -1
   7480.00000000             -5              9             -7              3
   7484.00000000             -1              2             -7              2
   7488.00000000              3              4             -3             14
   7492.00000000             19             -3              1             -5
   7496.00000000             12              2             17              3
   7500.00000000              9            -21             -6              2
   7504.00000000             -3              1             -2             -2
   7508.00000000             17              8              3            -13
   7512.00000000              5             12            -10             -3
   7516.00000000              9             -2              1             -0
   7520.00000000             17             -3             -1              4
   7524.00000000             -1             10              1            -10
   7528.00000000              6            -13             13              5
   7532.00000000             -1              5            -10            -13
   7536.00000000             -5              1             -2              9
   7540.00000000              4             12             -4              9
   7544.00000000            -14             -0            -15             -2
   7548.00000000            -15             -4              0              4
   7552.00000000             -8             -5             -7             -3
   7556.00000000              9              3             -4              3
   7560.00000000            -11             -4             -3            -18
   7564.00000000             -4             12            -16             -8
   7568.00000000              3             12             13             11
   7572.00000000              2             -0              1             -7
   7576.00000000             -3             -7              1            -11
   7580.00000000             -8            -13             -5             -9
   7584.00000000             -1              9              6             -5
   7588.00000000             -4              2              8             -2
   7592.00000000            -11             -3             -5              3
   7596.00000000            -10             -4             -2             -5
   7600.00000000             -7            -11              0              4
   7604.00000000              1              7             -9              5
   7608.00000000             -1            -16             -2             -9
   7612.00000000             -7              3            -16             -2
   7616.00000000             -5              1             -6             -9
   7620.00000000             -1             -8            -16              9
   7624.00000000             -2              6              1             -7
   7628.00000000             -4            -11              1             -3
   7632.00000000             -4              8            -12             -5
   7636.00000000              9              3            -14            -12
   7640.00000000             -7              3            -11              6
   7644.00000000             -9             -3              2             -1
   7648.00000000              6              6             -2              2
   7652.00000000            -20             -5              6             -5
   7656.00000000              3             -4             -5             -2
   7660.00000000             -6             -2              2             -2
   7664.00000000              4             -1              1             11
   7668.00000000              0             -4             -4             -6
   7672.00000000             -5             -9             -2             -8
   7676.00000000              6             -0             -8             -9
   7680.00000000              0            -10              1              2
   7684.00000000             -5             -0             -9             -2
   7688.00000000             -1             -3             -7             -3
   7692.00000000             -5              1              3            -10
   7696.00000000             -1             -5              1              5
   7700.00000000            -11             -6            -19             -6
   7704.00000000            -10              5              7             -6
   7708.00000000             -3             -3             -9             -3
   7712.00000000             -3             -2              1            -16
   7716.00000000            -13              5            -12             12
   7720.00000000              5              2             -6            -10
   7724.00000000             -4              9              2              7
   7728.00000000              0             -3             -9             -0
   7732.00000000              0             14              1             -0
   7736.00000000             -7              9              2             -2
   7740.00000000            -12              1             -2             -1
   7744.00000000              1            -12              1             -5
   7748.00000000             -2              4              5             -5
   7752.00000000             -5             -5             -2              3
   7756.00000000             -4              9              0            -13
   7760.00000000              4            -12             -7             -7
   7764.00000000            -11              4             -2              3
   7768.00000000              7             -1             -2              2
   7772.00000000             -2              3             -8              1
   7776.00000000             -0             -1              2             -1
   7780.00000000             -1              6              2              2
   7784.00000000              7              7              8             -7
   7788.00000000              5             -4              3              0
   7792.00000000              4              4              3              0
   7796.00000000              2             -4             -8             -4
   7800.00000000             -0             -5              5             -3
   7804.00000000             -4             -1             -0             -1
   7808.00000000            -11              3             -1              6
   7812.00000000              1             -9             -2              8
   7816.00000000              4              2             -2             -6
   7820.00000000             -2              3              5              3
   7824.00000000              4              4             -5             -2
   7828.00000000              2              2              7              7
   7832.00000000              5              0              5             -3
   7836.00000000              0              3              1             -1
   7840.00000000             -3              4              1              0
   7844.00000000             -1              2             -3              3
   7848.00000000             -1             12              1             -3
   7852.00000000             -6             -1              4             -6
   7856.00000000              0              6             -4              1
   7860.00000000             -5              4              5              6
   7864.00000000              4             -5             -7              6
   7868.00000000             -8              0              2              9
   7872.00000000              3              3             -7             -3
   7876.00000000              1             -5             10             -8
   7880.00000000              3              2              3              1
   7884.00000000              3             -1             -2              3
   7888.00000000              6              3              0             -0
   7892.00000000              0              3              7              4
   7896.00000000             -2              3              1              3
   7900.00000000             -8              4             -2              5
   7904.00000000             -8              8              8              1
   7908.00000000             12              2              2              3
   7912.00000000             -0              4             -3             -1
   7916.00000000             -4            -11              3              3
   7920.00000000              1             -4              1             -2
   7924.00000000              2              3             -1             -1
   7928.00000000             -2              6              1             -4
   7932.00000000              4             -2              1              2
   7936.00000000              2              4              7             -3
   7940.00000000              4              6              3             -2
   7944.00000000             -5             -1              5              1
   7948.00000000             -2              6              2              5
   7952.00000000             -4             -4             -4             -2
   7956.00000000             -2             -5              7              5
   7960.00000000             -0              6              9             -5
   7964.00000000              0             -3             -3              2
   7968.00000000              3             -6              4              2
   7972.00000000             -4             -1             -2             -4
   7976.00000000              7              2              0              6
   7980.00000000              2              5             -2             -9
   7984.00000000              1              6             -3              5
   7988.00000000              9             -5             -0             -0
   7992.00000000             -1             -1              4             -1
   7996.00000000              1              1             -2              1
   8000.00000000             -1             -0              3              3
   8004.00000000             -4              2             -3             -1
   8008.00000000             -5             -2              7              1
   8012.00000000              2             -4              2              3
   8016.00000000             -2              3             -1              2
   8020.00000000             -2              4              1              6
   8024.00000000             -1             -2             -1             -2
   8028.00000000             -1              3             -1              6
   8032.00000000             -1              9             -4             -3
   8036.00000000              0             -1              1             -1
   8040.00000000             -0              4              2             -0
   8044.00000000              5              2             -2              3
   8048.00000000             -2             -0             -5              3
   8052.00000000             -4              5              3              7
   8056.00000000             -2             -4              8             -3
   8060.00000000              1             -4             -1             -6
   8064.00000000              3              5             -4              1
   8068.00000000              1              3              2             -2
   8072.00000000             -2              3              2             -1
   8076.00000000              2             -3              5              0
   8080.00000000             -1              0              3              2
   8084.00000000              1              4              4              4
   8088.00000000              2             -1             -1              3
   8092.00000000             -3             -4              6             -4
   8096.00000000             -0              5              1              3
   8100.00000000              6             -2             -0              1
   8104.00000000              5             -1              7             -1
   8108.00000000             -2              4              1              2
   8112.00000000              1             -1             -1              4
   8116.00000000             -2             -2              3             -3
   8120.00000000              1              3             -2              7
   8124.00000000             -4              3              6             -2
   8128.00000000             -1              1             -1             -1
   8132.00000000              1             -1             -0              1
   8136.00000000              5              6              5             -5
   8140.00000000             -2             -1              2             -1
   8144.00000000             -5             -3              3             -0
   8148.00000000              1             -1             -2             -4
   8152.00000000              2             -8              2             -2
   8156.00000000             -4             -3             -0             -0
   8160.00000000             -4             -1             -2             -1
   8164.00000000              4             -3              0              1
   8168.00000000              5              0             -0             -3
   8172.00000000              4             -4             -6             -3
   8176.00000000              3              2             -1             -4
   8180.00000000             -5              4              0             -5
   8184.00000000              4             -1              0              2
   8188.00000000             -1              2              1             -1
##END NTUPLES=NMR FID
##END=
