##TITLE=CEC-PhSi2-flow(sequence-1700)-06-08-26
##JCAMP-DX=5.01 $$ Nanalysis NMReady v2.2.5.1
##DATA TYPE=NMR FID
##DATA CLASS=NTUPLES
##ORIGIN=Nanalysis Corp.
##OWNER=Nanalysis
##LONG DATE=2026/06/08 17:04:45-0400
##SPECTROMETER/DATA SYSTEM=NMReady 60/nanalysis-X542
##INSTRUMENTAL PARAMETERS=^1H
##TEMPERATURE=32.983482
##PRESSURE=1.000000  $$ Bar
##RESOLUTION=0.00001999999949
##SAMPLE DESCRIPTION=None
##.OBSERVE FREQUENCY=60.55203925345048
##.OBSERVE NUCLEUS=^1H
##.SOLVENT NAME=Toluene
##.ACQUISITION MODE=SIMULTANEOUS
##.SHIFT REFERENCE=INTERNAL, Toluene, 4096, 5.00000000000000
##.SOLVENT REFERENCE=5.00000000000000
##.PULSE SEQUENCE=1D
##.DELAY=(0.000000,0.000000)
##.FIELD=1.422227  $$ Tesla
##.OBSERVE 90=15.789399
##.ACQUISITION TIME=6.55279983446235
##.ZERO FILL=0
##.AVERAGES=4
##.DIGITISER RES=16
##.SPINNING RATE=0.000000
$$##.PHASE 0=-20.00000000000000
$$##.PHASE 1=79.00000000000000
$$ NMReady specific parameters
##$SCANS=4
##$SCAN DELAY=1.000014
##$TOTAL DURATION=31.338313
##$X_PULSE=14.210050
##$RECVR_GAIN=12
##$SWEEP WIDTH=20.000000
##$RELAXATIONDELAY=1.280964
##$ZEROING=7.000000
##$APODIZATION=0.030000
##$PHASECORRECTION=-20.000000,79.000000
##$PIVOT=0.000000
##$DT=0.000020
##$LOCKOFFSET=2.080000
##$SPECTRALCENTER=5.000000
##$DECIMATION=40
##$LOWESTF2=-322.239820
##$T2NUCLEUS=1H
##$PULSE_AMPLITUDE=17.500000
##$PLOTTYPE=1D
##$INTEGRALS IS MANUAL=False
##$INTEGRALS REFERENCE ENERGY=40939.157691569919
##$EXPERIMENT_SETTING_Apodization=0.03
##$EXPERIMENT_SETTING_Decoupling Mode=Off
##$EXPERIMENT_SETTING_Digital Resolution=0.02 Hz
##$EXPERIMENT_SETTING_Dummy Scans=0
##$EXPERIMENT_SETTING_Dwell Time=0.50 us
##$EXPERIMENT_SETTING_NPoints (Complex)=8192
##$EXPERIMENT_SETTING_Nucleus=1H
##$EXPERIMENT_SETTING_Pulse Angle=80.37, °
##$EXPERIMENT_SETTING_Pulse Width=14.21 us
##$EXPERIMENT_SETTING_Receiver Gain=12.00 dB
##$EXPERIMENT_SETTING_Receiver Gain (dB)=12, Auto
##$EXPERIMENT_SETTING_Scan Delay=1.0 s
##$EXPERIMENT_SETTING_Scans=4
##$EXPERIMENT_SETTING_Solvent=Toluene
##$EXPERIMENT_SETTING_Spectral Center=5.00 ppm
##$EXPERIMENT_SETTING_Spectral Width=20 ppm
##$EXPERIMENT_SETTING_TX Frequency=60.552039 MHz
##$EXPERIMENT_SETTING_Time Per Scan=7.8 sec
##$EXPERIMENT_SETTING_Zero Filling=7
##$RDC_ENABLED=1
##$RDC_TYPE=CONT5PAR
##$RDC_DATA=(0.145553,5.475700,2.437884,0.765625,0.888815)
$$ End of NMReady specific parameters
$$ Bruker specific parameters
$$ --------------------------
##$DATE=1780952685
##$SI= 65536
##$TDeff= 8192
##$SFO1= 60.55203925345048
##$O1= 302.76019626725241
##$SF= 60.55173649325421
##$BF1= 60.55173649325421
##$AQ= 6.55279983446235
##$SWH= 1250.00003157765696
##$SW= 20.64340106442290
##$SR= 0.00000000000000
##$OFFSET= 15.32177714122903
##$FIDRES= 0.15258789447969
##$O1P= 5.00000000000000
##$TD= 16384
##$DW= 399.99998989515007
##$SPECTYP= PROTON
##$NS= 4
##$DS= 0
##$DR= 16
##$DE=1.000014
##$RG=12
##$P1=14.210050
##$P= (0..2)
0.0 14.210050
##$PHC0= 59.50000000000000
##$PHC1= -79.00000000000000
##$PH_mod= 1
##$WDW= 1
##$LB= 0.02999999932945
$$ End of Bruker specific parameters
$$ ---------------------------------
##NPOINTS=8192
##DELTAX=0.0008000000
##NTUPLES=NMR FID
##VAR_NAME=TIME,FID/REAL,FID/IMAG,PAGE NUMBER
##SYMBOL=X,R,I,N
##VAR_TYPE=INDEPENDENT,DEPENDENT,DEPENDENT,PAGE
##VAR_FORM=AFFN,AFFN,AFFN,AFFN
##VAR_DIM=8192,8192,8192,2
##UNITS=SECONDS,ARBITRARY UNITS,ARBITRARY UNITS,
##FIRST=0.000000,1203.787407,358.876258,1
##LAST=6.552800,-0.000051,0.000016,2
##MIN=0.000000,-1107.070497,-845.471351,1
##MAX=6.552800,1203.787407,986.578516,2
##FACTOR=0.00079999997979030013,0.00000056055736253678,0.00000056055736253678,1
##PAGE=N=1
##DATA TABLE= (X++(R..R)), XYDATA
      0.00000000     2147483000     1410722825     -223529579    -1558289458
      4.00000000    -1974945958    -1392698222     -297888815      700039617
      8.00000000     1165489038     1054274905      551189144       32051988
     12.00000000     -213338122     -188700807     -179882995     -424726819
     16.00000000     -823421884     -946982756     -469703426      478569167
     20.00000000     1348423232     1590587323     1023934281      -68323162
     24.00000000    -1135121567    -1640572991    -1332744442     -387242765
     28.00000000      649979563     1196272620     1035948981      433798250
     32.00000000     -113749995     -302421095     -211310251     -144826875
     36.00000000     -283066400     -524678361     -601978408     -317766247
     40.00000000      276223530      896852405     1158753329      830586511
     44.00000000        5516980     -883122445    -1315941825    -1039510178
     48.00000000     -244842456      572489041      952889751      782469581
     52.00000000      291612559     -156662028     -320872900     -228650350
     56.00000000      -85540235      -88190621     -256715749     -409187701
     60.00000000     -315363858       92991704      615870505      893235034
     64.00000000      678891228       45656328     -657347610    -1006407165
     68.00000000     -806112784     -197613732      447017834      766978152
     72.00000000      640793841      224177992     -176540548     -328015423
     76.00000000     -225342289      -47269236        2296052     -123054057
     80.00000000     -278348005     -258396072       18681795      415455546
     84.00000000      656864200      537961893       74716608     -472636468
     88.00000000     -779440585     -657667700     -187291324      347705763
     92.00000000      634462189      546918194      195392361     -163943409
     96.00000000     -313426255     -229647058      -53316033       34556370
    100.00000000      -34679726     -164107469     -187450959      -16014054
    104.00000000      270913379      473883428      419906813       90288668
    108.00000000     -338454664     -600319605     -533089982     -172754480
    112.00000000      262404895      515547734      460228308      173482143
    116.00000000     -136615511     -282381779     -222762517      -64382636
    120.00000000       44467954       21451529      -81933471     -131929611
    124.00000000      -37996129      166118611      338463145      325931364
    128.00000000       94335805     -233618307     -455605601     -425041020
    132.00000000     -152588502      193439761      407625016      377959203
    136.00000000      152985847     -109183839     -247501173     -206444495
    140.00000000      -59769527       52484304       49698053      -35683263
    144.00000000      -97966244      -47583917      103517070      240777173
    148.00000000      247641767       84445004     -160472820     -336845167
    152.00000000     -327753684     -130560220      134061324      314278659
    156.00000000      307545421      136486125      -81588341     -210129496
    160.00000000     -186100906      -64562866       45931378       68379015
    164.00000000        8109678      -56277840      -45899948       44726006
    168.00000000      151828146      177191180       81076674      -92162961
    172.00000000     -236677964     -256304171     -121715861       85152233
    176.00000000      240720362      253344302      123802499      -59215036
    180.00000000     -172922632     -169395053      -70557178       35730148
    184.00000000       75865585       40135562      -21805719      -43811131
    188.00000000        1166983       80176320      122925426       79136366
    192.00000000      -38438780     -160219089     -200502300     -115817661
    196.00000000       46828197      186922881      215440768      117136927
    200.00000000      -39233319     -150342256     -157795702      -74795343
    204.00000000       27166149       82002645       63436314        5214329
    208.00000000      -36297982      -23808576       35947624       82920910
    212.00000000       67961219      -13668472     -106745058     -151227122
    216.00000000      -93940725       24062088      138928290      171265759
    220.00000000      103641112      -20336852     -121699521     -147131302
    224.00000000      -83747675       11740967       80364847       83506357
    228.00000000       34437942      -22015309      -36525345       -3909143
    232.00000000       37959917       47234933        5162649      -60340272
    236.00000000      -97165160      -74066325        6176001       96182455
    240.00000000      132297127       91372275       -6323099      -99901768
    244.00000000     -132992618      -86238933         125109       75016384
    248.00000000       93973790       55487284       -8267700      -43905675
    252.00000000      -35915030       -3269894       26228532       18684864
    256.00000000      -19582594      -55182311      -54233331       -5383261
    260.00000000       59561617       96746491       75595021        3752605
    264.00000000      -75266516     -109770816      -81230004       -7411660
    268.00000000       64972807       94987831       64751905        4756691
    272.00000000      -43653863      -55828848      -28624872        9079818
    276.00000000       28658482        8698934      -23016159      -35671472
    280.00000000      -14812676       30527884       64575125       61400543
    284.00000000       13401052      -50625216      -87752448      -74465285
    288.00000000      -16304757       52711025       86571950       68828985
    292.00000000       11578276      -42828198      -63374280      -41850905
    296.00000000         637987       28995301       26578800        2761312
    300.00000000      -19009119      -18948661        6356562       34302053
    304.00000000       44103112       16763558      -28464606      -66293750
    308.00000000      -62556273      -17097755       41143578       74504499
    312.00000000       63899162       15040321      -39052657      -62133598
    316.00000000      -47834160       -9716202       29724953       41215629
    320.00000000       22575496       -6820195      -22782938      -14760307
    324.00000000       12783537       28216486       17928130      -13012465
    328.00000000      -43783801      -44638365      -14775685       28831995
    332.00000000       57897745       51895562       17190792      -31334890
    336.00000000      -60143679      -53408404      -11032787       33055910
    340.00000000       49205293       32845047        -866062      -24027206
    344.00000000      -23268446       -2712655       15557608       17393134
    348.00000000         448957      -23812485      -29282530      -16487121
    352.00000000       14172008       42974257       45290177       17723782
    356.00000000      -25844901      -54100020      -46599107      -10684548
    360.00000000       29495159       44809201       35131190        4731069
    364.00000000      -21500762      -28933787      -17508879        5498855
    368.00000000       17127119       11486765       -9118784      -22996456
    372.00000000      -17231558        4468315       28422633       35007283
    376.00000000       12953548      -18166566      -42809617      -39813794
    380.00000000      -12723737       19819480       38533413       36574039
    384.00000000       10643392      -18093357      -30919729      -22467737
    388.00000000         392255       16884336       17341320        1422432
    392.00000000      -12088947      -14881708        -844770       17127820
    396.00000000       25167025       15129856       -9622726      -28310431
    400.00000000      -31702029      -15204936       13155347       32815754
    404.00000000       31523489       10917425      -15040452      -30199191
    408.00000000      -23261609       -2555591       13548703       15723257
    412.00000000        4975144       -8084366      -11862035       -6319754
    416.00000000        6125798       17723275       14586606       -1750563
    420.00000000      -20360063      -26008021      -10771277        8198229
    424.00000000       26620037       25244617       10000522      -11951855
    428.00000000      -22335510      -20925049       -4275381        9847703
    432.00000000       17684179       10321429        -576153      -11080128
    436.00000000       -7447526        2311457       11336606        9853219
    440.00000000         525363      -11799321      -17354430       -9437925
    444.00000000        3857032       17216133       19764359        6503453
    448.00000000       -5609155      -17447985      -17798600       -7379212
    452.00000000        8153990       14693698       10319097        1199046
    456.00000000       -7015537       -9168295       -2138131        4678361
    460.00000000        7857523        1789739       -7097027      -10170149
    464.00000000       -9290328       -1001446       10369840       11617376
    468.00000000        8463888       -3920268      -12571502      -13670925
    472.00000000       -5707143        4056592       12047452        7933010
    476.00000000        3452873       -5646518       -5746267       -4446750
    480.00000000        1667127        7537014        3927365       -2164456
    484.00000000       -3996669       -5932845        -752447        4314946
    488.00000000        8755639        4452720        -494060       -6822480
    492.00000000       -8198784       -6446323        3037164        5983183
    496.00000000        6365421        2651090       -2840514       -5961328
    500.00000000       -2057635        1121632        2779676        5499433
    504.00000000         593734       -2356105       -3351290       -1897073
    508.00000000        1738273        4153640        3685337        -550290
    512.00000000       -4667739       -5450746       -5567492        2759293
    516.00000000        5606179        5644978        2346719       -1765386
    520.00000000       -4068905       -4211884        -244332        1489211
    524.00000000        3302088        1088111       -1156018       -1038948
    528.00000000         476909        1283139        1475079        1829744
    532.00000000        2039293       -3381586       -3798592        -272282
    536.00000000         921721        1968982        3897237        2180897
    540.00000000        -555167       -3872726       -3850088       -3244794
    544.00000000        1191213        1198070        3538082        2060787
    548.00000000       -1257701       -3082260       -1168206         -20525
    552.00000000         942981        1849441        -700514       -1443407
    556.00000000       -2489716        -748999         438945        1768047
    560.00000000        2697536         219606       -2457546       -3460586
    564.00000000         180035        -508955        2102461        3195270
    568.00000000        1419144        1353625        -810134       -2004449
    572.00000000       -1585531         651612         989932        2527535
    576.00000000        -105080       -1745939       -1185526        -978346
    580.00000000        1943424        2899964         954147       -2382315
    584.00000000       -2082185       -1971394         736479         927611
    588.00000000        2584174        3259248         -97763       -1310044
    592.00000000       -2314756       -3086339         148602        2451374
    596.00000000         -69891         455671       -1503112       -1217770
    600.00000000        -510322         -91271         582277         362599
    604.00000000         379071       -1522867       -1525326         -19921
    608.00000000         747009        1923601        1036518       -2277965
    612.00000000        -471777        -168762       -1027464       -2024636
    616.00000000        3612994        2886353        -337876         259777
    620.00000000        -127735        -163842         981597         557311
    624.00000000          44791        -565656        -533372       -1277868
    628.00000000        -668204        1701491        3805822        1289932
    632.00000000         366547       -2275597       -1289534       -1992611
    636.00000000         -84983        3026316        -264490        -318525
    640.00000000        -750118          26587        1079946          81446
    644.00000000        2365854        -327111        -907239        -669605
    648.00000000       -1866325        -648333         857566        1001728
    652.00000000        1862288         144020       -1166033       -1855360
    656.00000000         727766        1324387        -256165        -229671
    660.00000000        1179018         574328       -1578582        -487813
    664.00000000        1011825        1506661         608134        -415830
    668.00000000        -481557        -357849        -845136        1072933
    672.00000000        2150213        1350231        -690474        -671565
    676.00000000       -1111469         296177        1485820         157583
    680.00000000       -1219611        -761404        -825229       -1099674
    684.00000000         914832        2791420        1799659         182676
    688.00000000         -65037       -1628073        -997641         163685
    692.00000000         280052         130897        2226440        -817154
    696.00000000         437042        -329692        1084991        -139551
    700.00000000        1406978         703623         500406       -1656232
    704.00000000         308598        1490185        1231245         320827
    708.00000000        1523951         -60430       -2055538          91242
    712.00000000        -677788         745181         887658          99609
    716.00000000        1377350        -662105         213362         906513
    720.00000000         -65283         677846         -43797        -219874
    724.00000000        -839245       -1352201         670583       -1000115
    728.00000000        1402474        -176727         316996         308843
    732.00000000         636936          89430        -593796         642501
    736.00000000         237699         270450         914045         229605
    740.00000000         148980        -700440        -557547        -504121
    744.00000000          -2571        -258289        -395386        -360327
    748.00000000         622812        -681112         133984        1115322
    752.00000000         693852        -918838         271187         213054
    756.00000000        -435690         113386         803135         371500
    760.00000000        1400805          75524       -2061802         723498
    764.00000000         258144          90987        1532804        -581749
    768.00000000        -408533        -451221         308367         615330
    772.00000000         366140         100077        1088254         227301
    776.00000000        -141012        -192035         258622        1082002
    780.00000000         -13836       -1817739        -845303       -1159726
    784.00000000        1030868        1513058        -394557         657112
    788.00000000         129875        -711144        -198067        1132743
    792.00000000        -903971         976380         740852        -183374
    796.00000000        -690444        -541655       -1092470         386332
    800.00000000        1135549         663079        -109573         292381
    804.00000000         287619        -701869         -53248         354493
    808.00000000        -340489        -476405         778740       -1898565
    812.00000000         192278        1279145          -6723         551961
    816.00000000        -635118       -1123312         598930         -34078
    820.00000000          92890        -965124         474711        -101655
    824.00000000        -600822         406802        -380652        -106946
    828.00000000        -873611        -291756       -1049508       -1776645
    832.00000000        -222857        -611526        -231301        -679344
    836.00000000         631132         101879         767595        -915258
    840.00000000        -325854        -849077        -173060          27022
    844.00000000         913143        -272801        -213236         -25993
    848.00000000        1228993         803436        -923742         844048
    852.00000000        -853967        -678128         593040          56043
    856.00000000        -328934         659792         479643         506386
    860.00000000         -55164        -243882         202951        -564561
    864.00000000        1027953        1476407         491672        -881448
    868.00000000         100186       -1392826         182006        1290196
    872.00000000        1230385        -722489         185735        -498414
    876.00000000        -199681       -1119473        1118152         814066
    880.00000000        -199487        -331276         847647          98652
    884.00000000        -970264       -1042580         363583         933627
    888.00000000         165192        -194396         -16243       -1018128
    892.00000000          97178        -118467         420956       -1196036
    896.00000000       -1051379        -360694          59130         179144
    900.00000000       -1002660         678197        -295940         349850
    904.00000000         120689         -14564        1069045        -251829
    908.00000000         496257        -553609         264564        -207413
    912.00000000          62870        -173411       -1027262       -1044891
    916.00000000         764984         456452        -295334         130358
    920.00000000         358411         -30429         663608        1036832
    924.00000000        -525624        -982282         222035        -100118
    928.00000000         600127         562992        -304943        -798389
    932.00000000         -83783        -391049        -257255        1093109
    936.00000000       -1267829         177614        -787513        -682704
    940.00000000        -397459        -679245        -120189           -399
    944.00000000        -891732        -354473        -293302        -518642
    948.00000000        1547501        -202471        -255537        1214238
    952.00000000         489848         -73735       -1236910         395457
    956.00000000        -200809         827054        -804373         386958
    960.00000000         796388         735987         519749        1136751
    964.00000000        -263603         343874        -570338        -263879
    968.00000000         109734         228577         740924         630338
    972.00000000         837061         209714         253471        1330783
    976.00000000       -1181585        -920054         255820         194512
    980.00000000         -34560        -136672        -233931         830862
    984.00000000         -90484       -1001085         -13269         613728
    988.00000000         -55358         -97578        -250863        -691005
    992.00000000        1065763         450804        -806401         194615
    996.00000000         169204        -357841       -1273745          -4510
   1000.00000000        -244672        -379666         918425        -560955
   1004.00000000        -113936         127323        -319842        -361216
   1008.00000000        -221125         -65904         102757          94777
   1012.00000000         -89936        -687380         -49168        -153456
   1016.00000000        1235988        -588296        1053119       -1698476
   1020.00000000        -191624         -23137         878837        -908391
   1024.00000000        -359360         315249        -243299        -162692
   1028.00000000       -1002382        -538954        -500474        -741989
   1032.00000000         314849        -641753          16576         -20661
   1036.00000000         167698         -76802        -564937        -928576
   1040.00000000        -166751        -291014         126067         933342
   1044.00000000        -315832        -585157        -562085         967866
   1048.00000000         588249         719474        -109866       -1209240
   1052.00000000        -623428          76039        -787049        -520542
   1056.00000000        -431561         813046         989109        -562183
   1060.00000000         600272         923200        -620475        1393910
   1064.00000000         430987        -318629         -13823        -145669
   1068.00000000        1123773        -498506        -891516        -234746
   1072.00000000         185025          19645        -359045        -313085
   1076.00000000        -703582         606039         578646         175735
   1080.00000000         308837         592356        -522540         649302
   1084.00000000         -44986        -483752         648711         563826
   1088.00000000         -97261         -68864         785660         190806
   1092.00000000          91739        -184488         306786       -1736446
   1096.00000000        -380445         145200        -622927         254735
   1100.00000000        -256049         239304         711031        -587398
   1104.00000000        -149430        -695630         -27763          67072
   1108.00000000         241679        -347626         169574         551000
   1112.00000000         743262         406760         164757         -43316
   1116.00000000          56271         460247        -108107        -168026
   1120.00000000        -874179         -15727        -406278         721922
   1124.00000000        -128171        -156426        -590492        -174914
   1128.00000000         318240        -834499        1139610         212397
   1132.00000000         284433         313080         206854       -1149935
   1136.00000000         207362         -72236        -136574        -448255
   1140.00000000          46350        1020919          17153        -107432
   1144.00000000        -280696         120758        -496372          95181
   1148.00000000        -607006         376677        -183130        -441378
   1152.00000000         808811         441908        -941099        -983127
   1156.00000000          99163       -1007586         100242         354173
   1160.00000000        -232066         246950        -468512         517764
   1164.00000000        -219879        -371867         -91272       -1381024
   1168.00000000         220851         321913         242583         794157
   1172.00000000        -729527         122190         224692        -134368
   1176.00000000         391749         302880        -385519         559637
   1180.00000000         503206         429225       -1295561         133553
   1184.00000000          92870         552900        -361811         542310
   1188.00000000         378402          29687        -628097        -440364
   1192.00000000        -108747       -1153211         513201          22563
   1196.00000000         754531         385497         207861        -143533
   1200.00000000         677487        -120266          -6914        -536973
   1204.00000000        -529698        -552299        -913078          92012
   1208.00000000         -68126       -1152701         139191        -360210
   1212.00000000        -453182        -678042        -993608         213522
   1216.00000000        -113703         723193         442200         186575
   1220.00000000         168014        -223041         701157         518755
   1224.00000000        -304112        -386250        -321194        -459509
   1228.00000000        -320633         131770        -243558        -212879
   1232.00000000        -282610        -100467        -416113         -16702
   1236.00000000        -441829        -102015        -829873        -180893
   1240.00000000        -283264         478913         357264         341301
   1244.00000000        -312137        -233335         199868         558693
   1248.00000000         504351         152157         515082        -923718
   1252.00000000         642410        -229546         357800        -777022
   1256.00000000        -734701         186362        -438862        -422107
   1260.00000000         285535         177634        -797977         940562
   1264.00000000        -171979         129340          90087          -2670
   1268.00000000        -534415         847477         -25188         515480
   1272.00000000         -88929         515796         447958        -467459
   1276.00000000        -606372        -697125         -10178        -605766
   1280.00000000         108006         672379          84529          32610
   1284.00000000        -957846        -832953        -571957        -234726
   1288.00000000        -592619        -740241        -463409        -291848
   1292.00000000         690740         679558        -223042        -437574
   1296.00000000        -558915        -166713         225286         -36470
   1300.00000000         460797         720581        -120739        -668810
   1304.00000000        -380315         336636        -236631         187260
   1308.00000000        -201885        -613762        -900685        -102386
   1312.00000000        -143733        -355060        -337927        1013157
   1316.00000000         -61417        -590755        -174138        -589629
   1320.00000000        -503686       -1191667        -251558         490226
   1324.00000000          20938         145625         216838         173031
   1328.00000000        -369898         271952        -375085        -261895
   1332.00000000        -648192        -141620           5410          93481
   1336.00000000        -570008          51979         -47672         -88152
   1340.00000000        -420214        -319909        -818593        -128103
   1344.00000000         413396        -492191        -531196          80012
   1348.00000000        -232232         595069        -155375        -706875
   1352.00000000        -111034        -482430        -856582        -340488
   1356.00000000          23686        -264027         198983         139446
   1360.00000000       -1074992        -157419        -727221          53901
   1364.00000000         -99483         236014         277845          22982
   1368.00000000         -82653         359958         -18095        -180252
   1372.00000000        -149339        -704810        -728424         290466
   1376.00000000        -506915        -186132          45884          96316
   1380.00000000         333393        -504720         150893        -726338
   1384.00000000        -135921         -65443         346105         -49234
   1388.00000000        -297624         243265          -7007         173289
   1392.00000000        -673808        -700948        -566206           7954
   1396.00000000         199616         462003         777681         388163
   1400.00000000        -179267        -416442        -327869        -252953
   1404.00000000        -446302         -33245         218225         482542
   1408.00000000        -210015         655852         575516        -650739
   1412.00000000         -10946          -5633        -493319         182095
   1416.00000000         153250        -255501        -576932         186357
   1420.00000000         381460        -231570        -135818         510503
   1424.00000000       -1042235         208579        -455017         -70957
   1428.00000000        -354179         467007         358074        -114431
   1432.00000000          82057        -544062         220957        -144839
   1436.00000000        -167158        -313199        -246819        -480072
   1440.00000000          49970         329274         437001         704000
   1444.00000000        -106978        -220422         210183        -295865
   1448.00000000         121592        -637193         -80073       -1038087
   1452.00000000        -473983        -374982         -64458            567
   1456.00000000        -722620        -397306        -179756          10776
   1460.00000000         -82228         678101         158216        -316836
   1464.00000000         545417          21430         102239        -127040
   1468.00000000        -463262          81415         263169        -241947
   1472.00000000         354585         205250        -374281        -282118
   1476.00000000        -407046         515840          -2039        -248554
   1480.00000000        -567360         -15834         453957         581585
   1484.00000000         971751        -183150        -616798        -628710
   1488.00000000        -216667          85886        -135779        -121841
   1492.00000000        -100183        -200257          28686        -206887
   1496.00000000        -484976        -646999        -714779          45153
   1500.00000000         -84242         -32495         288701         275553
   1504.00000000         245260          30244        -166179        -695661
   1508.00000000        -271296        -756402         -52055         720482
   1512.00000000         -33505         184661         369777         -58690
   1516.00000000         380672         197036        -213285        -385059
   1520.00000000        -575334          18052        -116451         214902
   1524.00000000         101376         572158          83034        -610298
   1528.00000000        -704519        -157368         294673          86741
   1532.00000000        -251966         148709         361406         -20901
   1536.00000000         -16002         225029        -434187        -229788
   1540.00000000        -455568        -404994        -618825         -81824
   1544.00000000        -190535         129387         388748        -361936
   1548.00000000         228231          88583        -283500         455265
   1552.00000000          47141          -8449        -249846          79371
   1556.00000000          16569        -483823        -399187         -68843
   1560.00000000         384797          84936        -568657         201116
   1564.00000000         184736          57350         705444         -39977
   1568.00000000           6973         152533        -554006        -270309
   1572.00000000         -19969         -72939         232525        -342018
   1576.00000000        -172389         -14979         328482        -291834
   1580.00000000         507532        -192419         210478          57542
   1584.00000000        -318307         449481         998961         -21531
   1588.00000000         204066        -836370         -12237        -106824
   1592.00000000         603091         609201         187975         213272
   1596.00000000         196048        -137183         359302        -489636
   1600.00000000         -51081         133383        -613416        -184220
   1604.00000000         476602         434012         229256        -468613
   1608.00000000        -122578         227987        -228121        -342531
   1612.00000000        -194967         267794        -398219        -321234
   1616.00000000        -103762        -102550        -180506        -181735
   1620.00000000        -481799         -95520        -210737         134293
   1624.00000000         119488          27545        -300622          10553
   1628.00000000        -157964        -457976          64881         215139
   1632.00000000        -644853           8840         -74312         276390
   1636.00000000         -70873         290680         282770         200133
   1640.00000000        -556644        -310497         117734        -221565
   1644.00000000         187308         150818        -300234         -41456
   1648.00000000          97274         108069         157541         490712
   1652.00000000          -3674        -550303          99568         289299
   1656.00000000          -4443        -301040        -409352         180427
   1660.00000000        -198225        -397923         159256        -219504
   1664.00000000         220716        -123555         217515           2517
   1668.00000000         316581         196567         158391         355791
   1672.00000000         -73459        -472814         274927         268492
   1676.00000000        -358366         275489        -167134          60915
   1680.00000000          62123        -180673        -213797          80142
   1684.00000000         -45711         278871          29805         400261
   1688.00000000         273113        -591128         -99374          -6354
   1692.00000000        -114355         -35023         125429         -28160
   1696.00000000         118768        -196336         117519        -135537
   1700.00000000        -365573        -313151        -491570        -595789
   1704.00000000        -501785         451153         139693        -418106
   1708.00000000          -5085         -32919         -72216         192227
   1712.00000000         210778          24005        -385910        -119942
   1716.00000000        -377580         148735        -296651         140390
   1720.00000000        -253707         375121         161551        -223962
   1724.00000000        -184650        -107498         205641          24460
   1728.00000000        -338843        -117442         392080         333018
   1732.00000000          93132        -331096         184386           1431
   1736.00000000          48979           1139          33721          -1784
   1740.00000000        -173030         543070        -668795         264527
   1744.00000000          39425         487147        -213696         404825
   1748.00000000         -70352         -94436         202723         -43652
   1752.00000000        -485257         -65340         305626         101837
   1756.00000000        -378044         -34692        -307732         383621
   1760.00000000        -142560         312057         128719         270114
   1764.00000000         132828         276197         -82647         -27104
   1768.00000000        -305614            819        -112622         -96733
   1772.00000000         310471         578028         251699         444927
   1776.00000000         -88602        -147636        -326055         464457
   1780.00000000        -385695         188170         183641        -647852
   1784.00000000         -81352        -313863        -320119        -272758
   1788.00000000          49831          18743        -204925         426413
   1792.00000000         -34193         226842         -38295         397533
   1796.00000000        -501260         160772        -322469          61075
   1800.00000000         235373         157762          -4373        -276849
   1804.00000000         146367        -268454          19464         144152
   1808.00000000         -15163         132468         161107         115186
   1812.00000000         -81767         101569         269118        -343482
   1816.00000000          14409        -217498         390931         353008
   1820.00000000        -215207          50411          45404         387110
   1824.00000000        -410199         272529         -72405         241618
   1828.00000000        -328381        -353320         246524         461891
   1832.00000000         233659         -51199        -311215        -246565
   1836.00000000         161116         280285          -8761        -166197
   1840.00000000        -160498        -293664        -105680         216469
   1844.00000000          54888          20382         -49377        -346564
   1848.00000000          68533         221181        -255770         371237
   1852.00000000          38806          18148        -171917        -131411
   1856.00000000         177619        -293358         132494        -174015
   1860.00000000          25720         326907          60305         -35391
   1864.00000000        -102819          34618         321309        -125376
   1868.00000000        -209470         -35468         153600         -42247
   1872.00000000         -37057         406667          40617          72335
   1876.00000000        -173932          33736        -466043         191757
   1880.00000000        -222910         291905          31480         116001
   1884.00000000         -46578        -177745         170637        -189069
   1888.00000000        -109265         164737         103345         387627
   1892.00000000         166440         -82037         -65272          63219
   1896.00000000         -91263         162440         169109        -162651
   1900.00000000        -110044         143524        -123820         -76666
   1904.00000000          39050         165117         -89863         120323
   1908.00000000         -37752         190112         164197         575735
   1912.00000000        -180899         164420        -387231         -81713
   1916.00000000        -193511         119969         -84411         -18287
   1920.00000000         -32487         206171         458307        -111166
   1924.00000000         204996         155554          68813         147978
   1928.00000000        -375873        -407001          78924         -69726
   1932.00000000        -215147         385194         308376          35984
   1936.00000000         137647           4196           4327          52093
   1940.00000000          -4347        -252358        -453462         289942
   1944.00000000         -56639          22376        -233137          76253
   1948.00000000         -23168         108141           5126        -232399
   1952.00000000         -61544          59598         149147          51345
   1956.00000000        -303034        -150421        -311901         253149
   1960.00000000         -55193          36135          39693        -209244
   1964.00000000        -263199         -31652           6992         200716
   1968.00000000         157160        -279933         277936         -39186
   1972.00000000          55117         119163        -469126         352733
   1976.00000000          82997          89632         188197         -32931
   1980.00000000          86024          -8794         333093         272958
   1984.00000000        -196914          41183        -139297         -40505
   1988.00000000          70346         136796          56614         280593
   1992.00000000        -343959        -180375         240132         -52216
   1996.00000000          90550          92274         112188         169487
   2000.00000000         165612         112984         329481         238842
   2004.00000000          69297          -3419        -178506         134692
   2008.00000000         133802          16053        -104934         139984
   2012.00000000        -167022        -230622         127321        -108985
   2016.00000000          68691         125712        -257432          -2985
   2020.00000000        -311721        -119346        -156550         -63980
   2024.00000000         -21420        -188783          -5637         129080
   2028.00000000         195451         125216         193157         176050
   2032.00000000         -90560         138001          -7949          90903
   2036.00000000        -202222        -113572         175959          67182
   2040.00000000          49662         -65037         146082         171960
   2044.00000000         -13746        -112826         203505         270424
   2048.00000000        -104461          71492        -198160        -356310
   2052.00000000        -169094        -107079         357161          42893
   2056.00000000         164269         108591         354339          -5871
   2060.00000000         471841         167757         192230        -257439
   2064.00000000        -285219         -46591         -91764          10986
   2068.00000000          90602          69110        -238122          63030
   2072.00000000          44902        -117354        -118623         179514
   2076.00000000          53192         -57649        -223284          65798
   2080.00000000          77121         269144         -87028         -10759
   2084.00000000         292271         223888          56522         -21777
   2088.00000000         -88823        -162721         -51441         -38963
   2092.00000000            687         -22511         154083         134092
   2096.00000000        -198855         -59456        -121853         266097
   2100.00000000         108203          79232         236805        -108805
   2104.00000000         116917        -274767         -26497        -329807
   2108.00000000         129773        -119790         -80879         -30998
   2112.00000000         108914          -7632         122576         -52772
   2116.00000000         151669         -95119         -30174        -190135
   2120.00000000         169247         -77747          52660         431571
   2124.00000000         269385         -86294        -204588         132503
   2128.00000000          93926        -173938        -228555         136161
   2132.00000000        -170986           6908        -156634         280823
   2136.00000000          74596         -10302         -88181        -123730
   2140.00000000         -86149          90002         216664          -7393
   2144.00000000         123579         -21732         245476          12239
   2148.00000000        -168984        -104583         -36240         155913
   2152.00000000         295341         -78927         -32470          73685
   2156.00000000         127071        -105943          24150         105663
   2160.00000000        -149026         -26720          92951         -85937
   2164.00000000        -100860         -92766          66039         167871
   2168.00000000         -86235        -202421         240810        -183292
   2172.00000000         -74616         -43708         153621         328374
   2176.00000000          70631        -107772          31189         -33421
   2180.00000000           6428         206902          76005         -79628
   2184.00000000          45132         116186          62937         204952
   2188.00000000          46119           8122         246720         -21890
   2192.00000000          -6569        -272889         218321         -57246
   2196.00000000          84252         -13255        -157585          35819
   2200.00000000         111466         174997        -150569        -130909
   2204.00000000        -233832         197253         -62334         224467
   2208.00000000          21400         262522         -24374         221356
   2212.00000000         176676         289679         -60125          92923
   2216.00000000         -35342         116458          -9025          94650
   2220.00000000          71761          35553         165839         169348
   2224.00000000        -200287        -113384         154134          99302
   2228.00000000          29503          46750         139409         105537
   2232.00000000        -215325         109010         198792         176407
   2236.00000000          17516        -104075          81603         -94802
   2240.00000000          19437         -46310         345972        -175873
   2244.00000000          25303        -184248         -93163          47934
   2248.00000000          36613          12421         156584        -107770
   2252.00000000         313337        -220865        -136643         194660
   2256.00000000          72671         152159         -38382         -27263
   2260.00000000         -88415          79333          23864          -2801
   2264.00000000         217648         260446          61695         345569
   2268.00000000         251269          -4285         130688         150214
   2272.00000000         -63070         104118          29102         205735
   2276.00000000          85463        -236839          12600        -215018
   2280.00000000         -30172         243885         225290         110049
   2284.00000000         261266        -119767         -57509         145224
   2288.00000000         145270        -138881          73580         228044
   2292.00000000           3629         -88946          38776          -3253
   2296.00000000          29142         -91616        -139309        -212719
   2300.00000000        -411718          24673         242167        -169712
   2304.00000000          14715         -96677         101943         -46496
   2308.00000000          65301         115546         153474        -207749
   2312.00000000         113050           8441         -57915        -159370
   2316.00000000        -195112         113179        -127528         -14813
   2320.00000000          59046        -126695          27566         207187
   2324.00000000         -38045         147021         124057         168703
   2328.00000000         105638         204279          18180         -85334
   2332.00000000         -56377         133396          24096        -207553
   2336.00000000          10606         -42677        -244316          68732
   2340.00000000        -125563           1569          97592          71441
   2344.00000000         -51006         -86398         204006        -142879
   2348.00000000         184454         -60127         120570         136226
   2352.00000000          43218        -193971        -104824        -186565
   2356.00000000        -124493         228932         134677        -131791
   2360.00000000         -60834          20930         -94367          60355
   2364.00000000         131318        -122383         -54457         121579
   2368.00000000          -9263        -105851         244034          34928
   2372.00000000         -34840        -220066          46874          11530
   2376.00000000         -86911         169894          95699         203813
   2380.00000000         129284          57993         130352         -78414
   2384.00000000         160364         106317         -71760          -1865
   2388.00000000         -79023         -61195         -99593         -56335
   2392.00000000         178308        -166939         153639          14775
   2396.00000000          -3429         104999          68245           6926
   2400.00000000         -70706         -45790          36374         140258
   2404.00000000         128158         130679         -82980           6498
   2408.00000000          19857          30775         164928          76967
   2412.00000000          15099          42497          12428         -76126
   2416.00000000          55783         214466          50225        -112412
   2420.00000000         110936          10756         258140         222658
   2424.00000000         -59198         116064         122812          94450
   2428.00000000          39610          68760         -71049          80565
   2432.00000000         107360          61512         113460         -45199
   2436.00000000         102171         -20556         -48699         -15938
   2440.00000000         -84040           6739         120066          28588
   2444.00000000          85023          81353          70359          33458
   2448.00000000           -792          -7993         157850           9939
   2452.00000000         -29736         202915         -91408         -20464
   2456.00000000          71877         231883          52923         173453
   2460.00000000         -67078         104997        -113521         134408
   2464.00000000         -45027         145035         -51019          29812
   2468.00000000         -34202         104709         -63924          85288
   2472.00000000         -60856          97616        -211853          85450
   2476.00000000          39552         -43788         210053        -136035
   2480.00000000          53146         193123          21829         -97687
   2484.00000000        -144363        -213974         127540          91488
   2488.00000000          47248         -27963         168222          17510
   2492.00000000          61630           9487        -140567          25461
   2496.00000000         -18230          76110        -125767         -47524
   2500.00000000          -5968         163046           8283         -64240
   2504.00000000         107409          13279         -69194          35110
   2508.00000000         -99617         -46593          57060          17570
   2512.00000000        -162803        -103740         -18017         244011
   2516.00000000          19775         -26888          52891         159672
   2520.00000000        -128518          32580         140571          55704
   2524.00000000          47180          36889        -148507         202803
   2528.00000000        -102762         145752         -22341         -62794
   2532.00000000        -131799          18652          -2006         -25719
   2536.00000000         183701           3872          93976        -170467
   2540.00000000          16566          17521        -126833           8158
   2544.00000000          99294         -44069        -151878          94545
   2548.00000000         -75771          71034        -146921        -136676
   2552.00000000        -233374          40504          -8242         -62505
   2556.00000000           8940         110844         -44731          39130
   2560.00000000         -43978        -104869        -122123          29456
   2564.00000000         -93160         -47895          69559          27730
   2568.00000000          26616          55182         -31473         170011
   2572.00000000          39024          71670        -156760        -132002
   2576.00000000          43707        -232514         -70962          -6978
   2580.00000000         257461          73243          44528         -14816
   2584.00000000         145249         139912          80284          43951
   2588.00000000         -73893           2451         -56454          77813
   2592.00000000         -84102           8329          63586         128823
   2596.00000000         -65241          -9891           -732         -45199
   2600.00000000        -100074          42892         -43892          89853
   2604.00000000         -20185         -11991        -131454          64775
   2608.00000000           7887          56417         -55374          18807
   2612.00000000          84103          26709         -42497         -74403
   2616.00000000           8971         108489          79656          28606
   2620.00000000          14331          -8630          93875          85056
   2624.00000000         -72876         -26509          52291           -626
   2628.00000000         112059          23411          91583          30711
   2632.00000000         -63589         109967        -156633          26799
   2636.00000000          36371          29394         142273         -72212
   2640.00000000         -22391         -58020          64553          15862
   2644.00000000         -37582         219580           4905          33628
   2648.00000000         105767        -117065        -131522         130901
   2652.00000000        -180254         -80246          71547         -43628
   2656.00000000           -304          25896          12218         -33494
   2660.00000000         -35656         134605          40352         -23957
   2664.00000000          81051          59186          12475         -61361
   2668.00000000         -42481         -67333          63402          58282
   2672.00000000        -115303          75375          36913         -17255
   2676.00000000         147146         -40714         -41663         -31153
   2680.00000000          38455         -82448        -108801          16542
   2684.00000000          85749         100610          78827           -678
   2688.00000000         168473         157634          45054        -111637
   2692.00000000          27356         -33499          25250          28467
   2696.00000000         -39228         -42291          44925         -55026
   2700.00000000          -9580          35972         -69614          76009
   2704.00000000          95295         144390          62218          58943
   2708.00000000          76268         106662        -100351         -38305
   2712.00000000          74577         -41851          63960          31153
   2716.00000000          -1394          -3451         119933          48230
   2720.00000000          81904         -26954         -22701           -974
   2724.00000000          25853          22961          57672          15039
   2728.00000000           1697         -79555         -27085         117587
   2732.00000000          70515         -19017          35046         -94799
   2736.00000000          15722         115569          89343         -80508
   2740.00000000          78197          50023          19036         113940
   2744.00000000         182896        -137959          26149          69786
   2748.00000000          16079         -13811         -90442         -12512
   2752.00000000         -88092          57439         170514           3514
   2756.00000000          58542            657          32294          86339
   2760.00000000         128278          41359         -29132         -75280
   2764.00000000          25803          -1961         117019          20305
   2768.00000000         -23584         -37362         -19086         100213
   2772.00000000          29090         -25872          64324         -82047
   2776.00000000           9248          31220          62960         106544
   2780.00000000         -33711          25800         115903          33615
   2784.00000000         -84475         -48322          45034         -50063
   2788.00000000         -19704         -23849          93982          54119
   2792.00000000         -86455          41553          46782          51918
   2796.00000000          99774         120324         -10750          50845
   2800.00000000         -37699        -105905         -57716          36311
   2804.00000000         -56052         -55663          -6527         -56118
   2808.00000000          19662          39736         118677         -10246
   2812.00000000         -67470          38509         -58400         -29692
   2816.00000000         -70455          56717         -60923         -44331
   2820.00000000         -16654         -34639         -33006          88915
   2824.00000000         -27154         -83961          -9761         -30807
   2828.00000000           3771         -20325           -369          40107
   2832.00000000         -19227         -18469          46012         -12321
   2836.00000000          17758         -51875         -52615          43320
   2840.00000000          56560          55298          -8364         -21457
   2844.00000000          30370          62051        -110627          50677
   2848.00000000          55911           9592          46787         -73908
   2852.00000000         -60137         -62508         -59949          47459
   2856.00000000         -88629          56490         169046          84125
   2860.00000000          55207          44169          40943          49080
   2864.00000000           9185          -8622          43999          76130
   2868.00000000          36881          -6983          59422          42862
   2872.00000000         117183          67537          82766         -35130
   2876.00000000         -33164         112891          45920          27544
   2880.00000000         -40555          46023          83643          16829
   2884.00000000         -10538         102745          25040          87896
   2888.00000000          -3680          -9466          12333          44931
   2892.00000000         -50036         -14296         -43338          22248
   2896.00000000          90008         -31442         -41284         -21460
   2900.00000000         -52051          82011         -35855         -53772
   2904.00000000           2516          39819         -49137          24077
   2908.00000000          51367          58769          -7134          -1863
   2912.00000000          69601          36841         -16245            181
   2916.00000000          10718          11826          71183         -46954
   2920.00000000          40761         -10233         -56321          -5492
   2924.00000000          72135          33883         -22059         103923
   2928.00000000          -6539         -28171          43311          -3990
   2932.00000000         -23451          62741         -62675         -52628
   2936.00000000         -19169         -34343         -18726         -50385
   2940.00000000         -93574         -14919          15564           7461
   2944.00000000          40159          43562          70778          75234
   2948.00000000          11665         -74884          86774         -11042
   2952.00000000         -57710         -46108           -546         -11444
   2956.00000000          51422         -23831          96196         -83502
   2960.00000000         165294         -51736          39136          -2230
   2964.00000000         -77289         -70195         -14178         -47423
   2968.00000000           7357         109671         -64256           -153
   2972.00000000         -98673          10702          67789          26531
   2976.00000000          32377         104423         -69013         -21640
   2980.00000000          26509           8966         -99775          31771
   2984.00000000        -104115          92579          59207          -8479
   2988.00000000          -9002           5983          28406          -3667
   2992.00000000           -275          58072          30496          45357
   2996.00000000          55634         121513         -18393           -606
   3000.00000000            -34          47435         -21887          -2611
   3004.00000000          33604          52079         -80738         -13531
   3008.00000000           6006          92239         -72813         103672
   3012.00000000         -48230          -1228          63249          -6785
   3016.00000000         -74221         -20331          -5152        -107482
   3020.00000000          30263          -3819          90554          29176
   3024.00000000         -41700          64737          54372           1560
   3028.00000000         -44825         -68023          55784         109625
   3032.00000000         -63982         -65998         -13283          58694
   3036.00000000          88149         -28452          25074          27432
   3040.00000000            -17          36376          24922         -44993
   3044.00000000        -127704         -28572          89176          13984
   3048.00000000         -32087          51795          12748         -50544
   3052.00000000         -11564         -61006         -15573          46505
   3056.00000000         -73003          38299         -16156          64715
   3060.00000000          -5075          59624         -27771         -13853
   3064.00000000         -44687          55584         -31196          41332
   3068.00000000          29086          42595         -42453         -19044
   3072.00000000         -45463        -101171          24784         -50534
   3076.00000000          31963         -24656          13611         -25467
   3080.00000000         -13869         -49414          39480         -49133
   3084.00000000         -36384         -71770         -45628          30984
   3088.00000000        -105121          51180          49160          36655
   3092.00000000         -31642         -74130         -16390          53097
   3096.00000000          26790          15633          24758          53550
   3100.00000000          -1127          25647          67600          39498
   3104.00000000         -77802          19991          -8008          44079
   3108.00000000         -64954         -82546         -16462         -39772
   3112.00000000           8158        -116382         -70134         -46991
   3116.00000000          10735          -2374         -36652          12099
   3120.00000000        -113174         100909          20444          17791
   3124.00000000         -30808          21757          56983         144320
   3128.00000000            974         -47402          -9260         -22350
   3132.00000000         -53376          28070         -79639         -60927
   3136.00000000          26210          27851         -32537         -14479
   3140.00000000         -57268         -71019          16226         -34885
   3144.00000000         -23688         -33620         -17436          77641
   3148.00000000         -82906            642          11968         -63413
   3152.00000000          28379          92242         -41084          44043
   3156.00000000          -6449           7470         -47209         -22630
   3160.00000000         -26672            375          59206         -10270
   3164.00000000         -34353         -26155         -57479         -47616
   3168.00000000         -10416         -20711         -83616         -22024
   3172.00000000         -38086         -25916           4890           1742
   3176.00000000          -1259         -73866         -25789          32202
   3180.00000000          19557         -62704          37927          26154
   3184.00000000         -23635           7497          -9185          36334
   3188.00000000          18466           9476        -103408         -45477
   3192.00000000         -48242          20216          32554           8171
   3196.00000000          28621          24643         -36436         -54971
   3200.00000000          13376         -70346           2676          12590
   3204.00000000          12330         -40522           3465         -59200
   3208.00000000         -27614         -34195         -19495         -49845
   3212.00000000          40230          10645          -6638          28350
   3216.00000000          23425         -16815           7096           5568
   3220.00000000           5603          10504         -16307          33279
   3224.00000000         -20886           6206         -10451         -21511
   3228.00000000         -44009         -86370          50533           4761
   3232.00000000          -6170          17727          16334         -13539
   3236.00000000          44524         -10177         -45471          58909
   3240.00000000          34955          52401         112921           -397
   3244.00000000          66159           4777         -55847          -6906
   3248.00000000         -28966          73667         -44056         -16394
   3252.00000000          -6767          13009          -3531          30250
   3256.00000000          52823          41359         -11938          48068
   3260.00000000          41110         -38152          -9324         -28267
   3264.00000000          18456           8182         -55218         -25397
   3268.00000000           8547         -59386         -37026          11287
   3272.00000000           -393          37951          59576           -791
   3276.00000000         -17747         -32071          -1796           7049
   3280.00000000           7802          42783         -45449          -3345
   3284.00000000         -21526          50003          -5372         -30277
   3288.00000000          15175          -7765         -30459         -35153
   3292.00000000         -19866         -33165          15445          95732
   3296.00000000         -59460          45734         -76496          -6521
   3300.00000000           4751         -36411         -32285           -677
   3304.00000000         -18226         -35928          46694         -31024
   3308.00000000          11694          21979         -20123         -16462
   3312.00000000         -16455         -10156         -38783          36559
   3316.00000000         -10765          38510         -61547          35310
   3320.00000000         -35454         -18797         -13080         -29572
   3324.00000000         -44854         -25078         -49600         -84144
   3328.00000000         -19152         -65813          14240         -22952
   3332.00000000         -21270          16431           2907          29143
   3336.00000000          25607         -44809         -45162          32209
   3340.00000000         -37625         -12844         -18381           4547
   3344.00000000         -28427         -50402          41416         -77102
   3348.00000000         -58013         -33726          26075           1862
   3352.00000000         -40558          66595           5341         -33206
   3356.00000000           8578          30074         -38080          -5181
   3360.00000000          50264         -36791         -49667           3803
   3364.00000000          30320            156         -32448         -15847
   3368.00000000         -25837          14441         -31570          12830
   3372.00000000         -11353           6503          58971          14381
   3376.00000000         -41722          18967         -23027         -76802
   3380.00000000          41617          36328         -62114         -45460
   3384.00000000         -23103         -51437          23532          27873
   3388.00000000         -43115         -31369           1277            787
   3392.00000000          -7066         -15168         -62503          -2885
   3396.00000000          13998         -11687          33679          20023
   3400.00000000          32028          66977         -13716         -33660
   3404.00000000           4972         -32075          -6802         -20444
   3408.00000000           -738           1799         -18691         -22930
   3412.00000000         -10966         -19981         -39240         -44021
   3416.00000000         -39895          37417           9448         -25487
   3420.00000000         -34262          -8230           3814          31957
   3424.00000000         -67721          -9613         -14358         -62175
   3428.00000000           6053          15393          15363           8895
   3432.00000000         -49062         -21781          12989         -13789
   3436.00000000          -1236          17158         -17375          22601
   3440.00000000          -5314         -37435         -19312         -33214
   3444.00000000          -1879           2823          14959         -12513
   3448.00000000          25023         -40979         -17285           1993
   3452.00000000         -11278         -11279         -59714           -133
   3456.00000000         -45051         -10435         -25804           7595
   3460.00000000          27303           8480         -12020         -25340
   3464.00000000          -3465          29530          -7971          36628
   3468.00000000         -55285           8300          17726         -33878
   3472.00000000         -15368         -28222         -28483          12993
   3476.00000000         -55912           4947          -3694           7333
   3480.00000000           2134          -3621         -24859         -39134
   3484.00000000           3494           -645           9118         -38111
   3488.00000000         -31165          13331          33518         -39989
   3492.00000000         -17271          46167           5325         -40301
   3496.00000000           1357          -3723         -14330          33068
   3500.00000000          34639          -3967          30513         -31860
   3504.00000000         -24891         -70368           5979            935
   3508.00000000          21803           7316         -15918          24266
   3512.00000000         -11396          31997         -24723           8104
   3516.00000000         -16321           2246         -18619         -20802
   3520.00000000         -47457          21441         -22185          11307
   3524.00000000          -3845         -26549           9709          32624
   3528.00000000         -55950           6337         -48595           9199
   3532.00000000         -18742          13615         -50826          -5463
   3536.00000000          31061            637           2655          -7800
   3540.00000000         -25032         -19965          39156          -7366
   3544.00000000           -669          15977          22722           1585
   3548.00000000          12310          30055          15657          47479
   3552.00000000         -25970          -1489          20093          13593
   3556.00000000         -34938          22898          -3905         -17751
   3560.00000000          -3494          59726          45451         -29354
   3564.00000000          -2330         -37466         -12182          -7799
   3568.00000000         -39745          -4008          27926           7508
   3572.00000000         -39075         -15832         -34610          26449
   3576.00000000          -5297          32808         -23627         -34216
   3580.00000000         -26393         -31050          -2677          32804
   3584.00000000         -43519         -17478         -27009         -11340
   3588.00000000         -20669           6046         -30603          18990
   3592.00000000          30713         -31994         -42574          22457
   3596.00000000         -46831          -2506         -34294           7229
   3600.00000000          33500           8248          18627          -6901
   3604.00000000         -12016          -2622          -5116         -15927
   3608.00000000          11025         -22867          45191          18595
   3612.00000000         -42126          17277          -2853         -21379
   3616.00000000          -9975         -29375          -6083         -17295
   3620.00000000         -10807         -37843         -35742         -25075
   3624.00000000           3442         -10456         -38791          -7594
   3628.00000000         -18635         -30015         -20105         -24896
   3632.00000000          20814          -7227         -25941          61446
   3636.00000000           4679         -16422          47488         -28361
   3640.00000000          -7097          25643          12614         -26300
   3644.00000000          -2010          24149           2221         -25459
   3648.00000000           2697         -32661          39471          -2421
   3652.00000000          -4491          10157         -12856         -14954
   3656.00000000          12190          15445          10137           3199
   3660.00000000          -6112          27266          -5980          -6042
   3664.00000000         -11765         -13816           1516         -24843
   3668.00000000          -7151         -19561          13090          25231
   3672.00000000          -8733          -3754          -4658         -25637
   3676.00000000         -55823          -7029          32771         -39823
   3680.00000000         -13410          12536           4274          16633
   3684.00000000           7538          -4848         -22775          15694
   3688.00000000          -1669         -20104          -3458         -11190
   3692.00000000          -3089         -45330          -8773         -10458
   3696.00000000          -2808           5315          -3095          34470
   3700.00000000          26187          10599           3265         -24661
   3704.00000000         -11857          45925          -4531         -19675
   3708.00000000          30152         -22065          25122         -19674
   3712.00000000           3988           2817           3972         -15540
   3716.00000000          57994          11424         -13243          -7162
   3720.00000000          25122          11592           6740          22066
   3724.00000000          -6263           6031         -14461          10990
   3728.00000000         -29467          -1532          -5777         -14467
   3732.00000000         -25373          -4013          14861         -23824
   3736.00000000           2550         -42839          47534           2052
   3740.00000000          -1993          -9993           4422         -12185
   3744.00000000            753         -17840         -17380          -1172
   3748.00000000         -18272             60           6291          -3758
   3752.00000000          -8188          -1623          -7173         -11461
   3756.00000000         -40961         -10233          30928         -49016
   3760.00000000          33907          39504          14436          41533
   3764.00000000         -14234           -855          18957           9365
   3768.00000000         -31743         -16505         -21168          15250
   3772.00000000         -11266           1349         -32158          -3712
   3776.00000000          19010          28352           8401         -61550
   3780.00000000          30342           4830         -20383          15675
   3784.00000000          21491         -11919         -20252           1171
   3788.00000000          13141          -5068          12046         -11407
   3792.00000000          14667         -10485          40256            956
   3796.00000000          -9180           6436           -133          -5423
   3800.00000000         -16136         -21092         -19328          -9835
   3804.00000000          13082         -28804         -11232           8469
   3808.00000000          -2626           1658         -11910         -13660
   3812.00000000         -14961         -40265         -12599          26581
   3816.00000000         -25709          19422         -12566         -12510
   3820.00000000         -16600          -3568           2823           5683
   3824.00000000          37407           5396         -32264          32924
   3828.00000000           3727         -15236         -26030           4955
   3832.00000000            608         -41071            886         -38605
   3836.00000000         -20781          23873          -2796         -51955
   3840.00000000          -4086           6448           3155          21872
   3844.00000000          -2246           7006           1969           4398
   3848.00000000          23273         -24317          10885         -17878
   3852.00000000          13122          12691            151          -2220
   3856.00000000          -1404         -10467          -5786          -8941
   3860.00000000           8330         -11992            870         -30239
   3864.00000000         -27115          20265          13845          14396
   3868.00000000            676          -6405           5033          17459
   3872.00000000          -8252           2592         -27130           5240
   3876.00000000          -6932          10295          -5829          19310
   3880.00000000          -4101         -19696         -34921         -11486
   3884.00000000         -14598         -13267          13154         -43400
   3888.00000000           1863          -9416           7853          -6938
   3892.00000000          -9494          21941          -3728          14102
   3896.00000000           3391         -31838         -14418          25453
   3900.00000000          -9556          18932          -9091         -16750
   3904.00000000           6415          -4221          13694         -24795
   3908.00000000          10732          -9183          15519          -5444
   3912.00000000          13314         -14637          -2677         -11367
   3916.00000000         -37174         -27341          -9012          17582
   3920.00000000          20873          -5649          16478           1895
   3924.00000000           5492         -23790         -19329           1204
   3928.00000000          23953          28767          -2960          -6820
   3932.00000000         -11829         -35795          14435          18608
   3936.00000000         -35298          -1476           6001           9988
   3940.00000000         -14507          17109          14358          -2841
   3944.00000000          -6014         -14705           9199         -25499
   3948.00000000         -14173         -11611          -6487           6145
   3952.00000000          15088           1097           6241          14280
   3956.00000000          32724         -11140          17825          -9556
   3960.00000000          21502         -12313           5742          10041
   3964.00000000             18         -28605           6845           5409
   3968.00000000           4253         -20907         -12512          19542
   3972.00000000          30897           6990          10176          24023
   3976.00000000         -30579         -22501         -18362         -10476
   3980.00000000          35620          12186         -35790           2155
   3984.00000000           3490          -4861          12909         -14325
   3988.00000000           4967           1808          -4390          -6326
   3992.00000000           7109         -11762           5321           7116
   3996.00000000           1345          23317         -14496         -11574
   4000.00000000         -14476         -17829           6163          11923
   4004.00000000           8849          -4679         -13569         -29118
   4008.00000000          23320          -5064          -2918          17326
   4012.00000000          10464          16192           4486          18669
   4016.00000000         -22257          29529           4112          -3934
   4020.00000000          11914           7181            169         -21678
   4024.00000000         -12704          18446          17441          -2206
   4028.00000000           8516           4834         -10899         -19369
   4032.00000000           7078           5515          12035           8808
   4036.00000000          -5043           2787           9073           5841
   4040.00000000           1239         -13537          -4450         -13791
   4044.00000000         -16886          -2000           6581           2924
   4048.00000000          20477          13259          -7398          26211
   4052.00000000         -26302         -15343          -6982           6932
   4056.00000000           -291          -6086          -1722          -5765
   4060.00000000          -3676          19801          16097           5465
   4064.00000000           7230          -8167          -7814           3490
   4068.00000000           5949         -13727           8293           7890
   4072.00000000           7315          -7291           2416          -2159
   4076.00000000          22969           7724           7156          -9377
   4080.00000000           2579          17020          18520          -5339
   4084.00000000         -19619           6377          -9641          -3560
   4088.00000000          -5979           5656           4379         -14881
   4092.00000000          -1112          -6393          13424          -6343
   4096.00000000          -4695         -12807           4773         -19894
   4100.00000000         -10185         -16531           5255           7558
   4104.00000000          -3213          12682           -665         -19120
   4108.00000000           -271          14675          20406          -8349
   4112.00000000         -27100          -1693          18115          -3432
   4116.00000000           2839          17404          -8167         -14396
   4120.00000000         -12048           8825           7413          25981
   4124.00000000           2496          -9184          26803           6896
   4128.00000000          -1584          -3178           3111          -5517
   4132.00000000          13860          29223         -11522           6110
   4136.00000000         -16532           3885          -9385         -15477
   4140.00000000           1423          16698          22106         -11354
   4144.00000000           9456           2865           8209          14524
   4148.00000000         -17145           5197          -7591          -9892
   4152.00000000           8712          -2666         -21298          -1823
   4156.00000000         -21190         -22067          -2374          14400
   4160.00000000         -15597          -1746           4044         -21577
   4164.00000000         -20733           6297         -16104          -2522
   4168.00000000           6504           4032         -17418         -17549
   4172.00000000          -8348          13103           3952          24210
   4176.00000000           1336          11072           2843          -8791
   4180.00000000          -9032           4659          -6082          11791
   4184.00000000         -20458            864          -5648         -14425
   4188.00000000         -16462          10224          11035          -2078
   4192.00000000           8613          -7644         -20950          -3299
   4196.00000000         -15405           -780           2133          19677
   4200.00000000          -6663         -10538           1143         -22733
   4204.00000000          22045          12403           3233           3216
   4208.00000000          10960          -7767           3571           3943
   4212.00000000           9780         -10492         -13303           4598
   4216.00000000          -6620            494           5215           7517
   4220.00000000         -10742           3395           8250          -7176
   4224.00000000          -8437           8610            514          30095
   4228.00000000           7525          10419          16222          12788
   4232.00000000           1453           4938            -92           -253
   4236.00000000           2821           6231          12694          -1619
   4240.00000000         -12103          -9723         -12591          -3570
   4244.00000000           5556           2779         -10090          18798
   4248.00000000            305           2116          -2208           3457
   4252.00000000           1243          -5450          12863          -3030
   4256.00000000          22279           5691          -2771           6839
   4260.00000000         -18059          -1834          -1846          -2590
   4264.00000000          15985            616          -8224          -7491
   4268.00000000          -5427         -15018          -3061          -4675
   4272.00000000           5170           7362           2982           7246
   4276.00000000          10332          22392         -10026          -8587
   4280.00000000           3076          15418          32342          10680
   4284.00000000           3401          -3711         -18993          -5070
   4288.00000000          -1750          -2743            382            748
   4292.00000000          17294           6871          -9771          12057
   4296.00000000           -441          -3045         -16795          -9729
   4300.00000000           3060           8135          15592         -14745
   4304.00000000          -3749          -4163           5484          14174
   4308.00000000          21455            929          -9664           8560
   4312.00000000           7687          17350         -10568          -8383
   4316.00000000           2837          -2393           5505          -3033
   4320.00000000          -5485          -6521         -12715           8536
   4324.00000000           1331          11477           1158         -14793
   4328.00000000           8282           2665          -4336          -8324
   4332.00000000          -2172          -2922           3239           9594
   4336.00000000          -4081          18127           -654           1501
   4340.00000000           9152         -12096          11181           -831
   4344.00000000          15940           7604           9315           7336
   4348.00000000          17557          -6446           3365          -9026
   4352.00000000         -18109         -17535          10989         -15156
   4356.00000000           1863           2954         -16390          -4537
   4360.00000000          -2437          -7079          10346          -4851
   4364.00000000           4200         -17413           7748          19946
   4368.00000000           8138          -3794           7197         -12690
   4372.00000000          -2051           -998          -3464            841
   4376.00000000           -934           2251           -279         -10700
   4380.00000000            -23          -3245           5973          -4455
   4384.00000000           1928           8126          -4909           1011
   4388.00000000          -4903           1950         -10634           1120
   4392.00000000          -1102          -8053          -7840           -195
   4396.00000000           4886           -903           8516            962
   4400.00000000          -9861           -190           9186           6057
   4404.00000000          14370           2061            -98          -6902
   4408.00000000          12793          -2718           3270           1376
   4412.00000000         -17800            453          20990          -6342
   4416.00000000          16238         -12341           7474          10287
   4420.00000000           5281             35          17300           -592
   4424.00000000          14578            822           -119           5238
   4428.00000000           8015          -8781           9204           2629
   4432.00000000          13711           6616          14302           3266
   4436.00000000          -5104         -11868          -1935           2220
   4440.00000000          11577           4232          -2172            954
   4444.00000000         -10365           6417           1654           4783
   4448.00000000          15407           6556          -4698           2563
   4452.00000000           4250          10710            818           1669
   4456.00000000            451          -7227           -868           4131
   4460.00000000          -1654           2566           4063          -1764
   4464.00000000          16856          12670          15595          -9131
   4468.00000000           1206           1227           1194          -4877
   4472.00000000           4792           -954            -49         -12486
   4476.00000000           5292          -1251           5173           3403
   4480.00000000          -9928           4090           8702           9810
   4484.00000000          -4685          -3329           3964          -2337
   4488.00000000           9999          -6039           4372          -7597
   4492.00000000           3636           5195             47          -6909
   4496.00000000           8879           7919           7920           5709
   4500.00000000           4549          -1908           6436          -1664
   4504.00000000           8413           5467           1816          -1147
   4508.00000000          -2089          -6067          -6038          -1515
   4512.00000000           8241          -4086           5245           5519
   4516.00000000          -3074            601           7383            -29
   4520.00000000          -6403         -11611          -4067           5964
   4524.00000000          17731          -1135           7850           6820
   4528.00000000           9888          11107           5013           5538
   4532.00000000           6891         -11717          14968          -1061
   4536.00000000           1194          -6150           6704           3173
   4540.00000000          -4410            412          -1094          -1596
   4544.00000000           3895           7756           4583            506
   4548.00000000            258          -3934            868           -176
   4552.00000000           4339          -4243          -6489           8328
   4556.00000000           5445          -3139            593           6770
   4560.00000000          -9633             -6          11542           4081
   4564.00000000          -1233           3080           1540          -5113
   4568.00000000           2435           3166          -1006          -7707
   4572.00000000           5440           2703           3063           5807
   4576.00000000           -446           4900           1258           -379
   4580.00000000           6672             -5            434            589
   4584.00000000           1514           1332           -523           7531
   4588.00000000          -3567          13136          -2554           2940
   4592.00000000           1899          -4501          11429           6458
   4596.00000000          -1366           6085          -8608           -490
   4600.00000000           5515          -4602          -8565           2461
   4604.00000000           -748           3177           5764           2980
   4608.00000000           7949           1021           1474          -1426
   4612.00000000          13374         -10022           1478           6779
   4616.00000000          -9056          -5912          -4575           5065
   4620.00000000           4885           -512          12820          -6466
   4624.00000000          -2266           9265            956           5319
   4628.00000000          -1830           6116           5849           4598
   4632.00000000          -4200         -10612           1704             75
   4636.00000000          11141            -45          14456          -3109
   4640.00000000           6894           3279           8156            167
   4644.00000000           -718          -3948          -4129           4328
   4648.00000000          -8317           3119          -4696           7316
   4652.00000000           6499            814          -2074           9192
   4656.00000000          -1664          -1850           6450         -11823
   4660.00000000          -2069           1454           5056           8884
   4664.00000000           3611            294           -928           7517
   4668.00000000           9455          -1716           1600          -2276
   4672.00000000           1974          15501          -4091          -1183
   4676.00000000           8670           9472           2787          -6468
   4680.00000000           1061          -5302           3617           3620
   4684.00000000           3742          -4210          -9721           2079
   4688.00000000          10500           5064          12536           2106
   4692.00000000          10323          -2594           1289           4736
   4696.00000000          -1053          -3599            642          -1771
   4700.00000000          10185           -550            139          -5458
   4704.00000000          -9906           8022           5058           3411
   4708.00000000          13251           -953          -3380          -7826
   4712.00000000           9965          13068            286           4081
   4716.00000000          -7120           1060           3139           -838
   4720.00000000          -3685          -5140           -235           -922
   4724.00000000           5441          -4208          -1926           5716
   4728.00000000           -480          -8494           6916           8251
   4732.00000000            457          -2370          12245           2081
   4736.00000000          -2399           8953            744          -1621
   4740.00000000          -1131           -790           9645           3578
   4744.00000000          -4535          -6647           7397            188
   4748.00000000           6576           3283          -3705           1162
   4752.00000000           4907           6504           4171           6643
   4756.00000000          -8020           1909           8947           5228
   4760.00000000           9895          -1016          -4518            628
   4764.00000000           -101           1934          -7547           3016
   4768.00000000          -3723          -6003          -1807           7331
   4772.00000000          -2207           -735          -6690          -4398
   4776.00000000            251          -5621          -4945           4233
   4780.00000000           6378           9224          -3968           2599
   4784.00000000           3430           1182           6002           5488
   4788.00000000           5096           6082           2732          -2628
   4792.00000000          -6143           3107            854          -2180
   4796.00000000           1774           2518          -4649           4165
   4800.00000000          -3060          -1190          -8177           2648
   4804.00000000          -4280          -1488          11073          -8866
   4808.00000000           1137            495           3381           4808
   4812.00000000           -480           -136          10358          -1902
   4816.00000000           7446          -2933          -6330           1357
   4820.00000000           4231          -2401           2043           1755
   4824.00000000           1733            693            310           2248
   4828.00000000           9238            960          -5577           8159
   4832.00000000           8765           -949           5967           1545
   4836.00000000           -354           4815          -2756          -5433
   4840.00000000            999           4368           1482          -2557
   4844.00000000          -4823          -3447           2270           6279
   4848.00000000          -1090           1776           3959          -3846
   4852.00000000           4623           -269          -5571           3825
   4856.00000000             57           5340           2539          -1064
   4860.00000000          -6969           1165           1754          -5072
   4864.00000000          -2522          -7277           -879          -2564
   4868.00000000           3385           1566           -300           5182
   4872.00000000          -1669           -139          -3165           1600
   4876.00000000            724           3029            385          -1223
   4880.00000000          -1268           5796          -1598           8177
   4884.00000000           1987           -567          -7080           2864
   4888.00000000           6015           4078           5944           1716
   4892.00000000          -4201            164          11578          -5327
   4896.00000000            966          -5316           4996            645
   4900.00000000          -4051          -2768           3782           6863
   4904.00000000           2786          -2042          -9938            456
   4908.00000000           1414          -1557           -389          -2479
   4912.00000000          -7725           -223           1873           8546
   4916.00000000           4971          -3203          -5628           2308
   4920.00000000          -5794          -2147           5551           5082
   4924.00000000           -838          -2793          -2241          -2430
   4928.00000000            -14          -5427           3232          -1072
   4932.00000000          -3059            551          -2076             74
   4936.00000000            774          -1999           2012           8220
   4940.00000000           3514          -5238          -1903          -2994
   4944.00000000           4090           3984          -4859           6719
   4948.00000000           2232          -3565           4321            477
   4952.00000000              2           -507          -4727           -451
   4956.00000000           2800          -1288           7787           -863
   4960.00000000           1419          -1637           6840          -4270
   4964.00000000          -3894           7946           1981          -1584
   4968.00000000           5978            -85           2426          -7519
   4972.00000000          -2281           2613           -779           2922
   4976.00000000           -778            564           1089           4126
   4980.00000000           -651          -3410           2498           4191
   4984.00000000           5722           3620          -2580           2905
   4988.00000000          -6138           1942           5688            -61
   4992.00000000          -1558           2940           3364           -976
   4996.00000000          -1908           -317           -203            177
   5000.00000000            377          -1390           1660          -6259
   5004.00000000           1679           -614           6403           7048
   5008.00000000          -3969           4548           6103           2304
   5012.00000000           2629          -1169          -7196          -6546
   5016.00000000           4674          -5785           4294          -2416
   5020.00000000          -3552           6687          -5239          -2206
   5024.00000000          -2388           4968            798          -5290
   5028.00000000           6789            794          -3400           1953
   5032.00000000           2979          -1278          -2479           -726
   5036.00000000           2348          -2393          -2145          -2530
   5040.00000000           8158           4941          -1603          -4086
   5044.00000000          -5859          -3052          -4136           5124
   5048.00000000           5145           2460           1274          -3052
   5052.00000000            370          -2167           2378           -623
   5056.00000000          -6168           6659          -4636          -1751
   5060.00000000           5532           3138          -3175           3014
   5064.00000000            -81            720           3149          -3039
   5068.00000000          -1708           1601           4242           1289
   5072.00000000            666            985           1553           3198
   5076.00000000           1822            303           2164           2869
   5080.00000000           2569           4665          -4348           2101
   5084.00000000          -2517           1586          -1142           2851
   5088.00000000            357           -242          -1186           -584
   5092.00000000           6325           1269          -2133            277
   5096.00000000           4872          -4212           3068          -3951
   5100.00000000           -284           -842           1516          -1293
   5104.00000000           4264           4281          -3448           2546
   5108.00000000          -5838          -1199            704          -1909
   5112.00000000           -686          -2214           1144            538
   5116.00000000          -2054          -1331            302          -4778
   5120.00000000           4495          -1472            150           3225
   5124.00000000           1251           2090           -573            795
   5128.00000000          -3037          -2238           4281           3158
   5132.00000000           3019           3134          -1512            -48
   5136.00000000          -5262           -416            900            482
   5140.00000000           1534          -1226            136          -2775
   5144.00000000            103          -2265           5779          -1276
   5148.00000000            -20           2130           3895           -204
   5152.00000000            847          -1810          -3145          -4862
   5156.00000000           1403          -3334          -7945           1513
   5160.00000000           2680            440           1572          -1500
   5164.00000000          -4575          -1060          -1799            423
   5168.00000000           1445           3951            563           2649
   5172.00000000            -89          -4549          -1861           -740
   5176.00000000          -1154            -99           3515           1879
   5180.00000000           5845           2644          -5057          -3067
   5184.00000000            797           1708           2182            893
   5188.00000000          -2012          -2782          -1530           2561
   5192.00000000           5540           -421           2479           -194
   5196.00000000           -259          -2185           4006          -2822
   5200.00000000          -3476           2323           3679          -2849
   5204.00000000          -4261          -1240           3411           4360
   5208.00000000           4774           3553           -530           3345
   5212.00000000          -3227          -2735          -4257            971
   5216.00000000            -83          -6406           1648          -3175
   5220.00000000            686            -62           1183           1236
   5224.00000000           6092           -903           1431           2519
   5228.00000000           1503            431           3224           1819
   5232.00000000           3759           3263          -1437          -4551
   5236.00000000           4371           1490           -520          -4187
   5240.00000000           1113          -2035            441           4855
   5244.00000000            -58          -2720          -3063           2729
   5248.00000000           1803           2851           2959            -26
   5252.00000000           6311           4626          -1248          -5230
   5256.00000000          -1169          -3708           3521           2261
   5260.00000000          -1080            221          -1097           3815
   5264.00000000          -3532          -1044          -2731           -444
   5268.00000000          -1789           4887          -1245           1547
   5272.00000000            437          -3556            539          -5188
   5276.00000000           3164          -1956          -1853           5314
   5280.00000000           5326          -1683           1963            978
   5284.00000000           2103            987          -2947           -117
   5288.00000000           -663          -3741           2023          -1461
   5292.00000000           2532           -320           1417            723
   5296.00000000          -1431            181           2205           -885
   5300.00000000            358           -940           2936           2160
   5304.00000000           3338           3974          -4593          -1538
   5308.00000000          -1287          -1185            454          -2949
   5312.00000000           2543          -2229            783           -970
   5316.00000000           1180          -1540           2145          -3274
   5320.00000000           -121          -3482            209          -1134
   5324.00000000           1881          -1429            824           1850
   5328.00000000          -5890           2880           1550          -2775
   5332.00000000            378          -1647           3413            958
   5336.00000000           2260          -1970          -1798          -1242
   5340.00000000           3496           -500           2521           -831
   5344.00000000           1513            295           2608           -284
   5348.00000000           2837          -1866           3384           2754
   5352.00000000           2821            288          -1082          -1600
   5356.00000000          -3220          -2580           4051          -2610
   5360.00000000            -89          -1075          -3279           2534
   5364.00000000          -1677          -1298           1295           3046
   5368.00000000           1423           1145           2469          -2663
   5372.00000000           1804           1931           2224           1377
   5376.00000000             11           2732          -2840            890
   5380.00000000            926           3832          -1541            -62
   5384.00000000           -394          -3637           2148           1974
   5388.00000000          -1188             55           1377          -1017
   5392.00000000          -1833          -2475          -2507           2407
   5396.00000000            342           2076           4139          -1117
   5400.00000000           1498           1202          -1635             25
   5404.00000000           1085           2055           -977           1464
   5408.00000000          -2183           2618          -1111           1535
   5412.00000000           1034          -1058           1147          -3813
   5416.00000000           3641          -3075           3431            841
   5420.00000000            384           -553           2036          -2331
   5424.00000000           3989           -800          -1049          -1613
   5428.00000000           -899             90            183          -1498
   5432.00000000            417          -1366           2726             48
   5436.00000000          -1504          -1817          -2348           -842
   5440.00000000          -3062            504            372          -1948
   5444.00000000           1981          -3214            777           -436
   5448.00000000          -4858             25           -688            607
   5452.00000000            927            237           -385           1172
   5456.00000000           1731          -4837           1192          -2965
   5460.00000000           1256          -1959          -2868           -970
   5464.00000000           -576          -1318           3105            -30
   5468.00000000            468          -1457           -291            -93
   5472.00000000           1279            844           -477           -518
   5476.00000000           3321          -1597           -555            521
   5480.00000000            636           -225             75          -4688
   5484.00000000           1933             15            559           2116
   5488.00000000          -3833             93           1636           1861
   5492.00000000           1253            421           1429          -3853
   5496.00000000          -1428           2403            137           -951
   5500.00000000            -73          -2869           4281          -1899
   5504.00000000           -429          -1879           -580          -2037
   5508.00000000          -2009          -1856          -1919           1428
   5512.00000000           -955           -905           2223           -950
   5516.00000000           -660           -959          -1787            623
   5520.00000000           2589           1555           1054          -1496
   5524.00000000          -3201          -1062          -1622           -611
   5528.00000000           1202           -621           2353           1405
   5532.00000000          -2086            670           2520          -1036
   5536.00000000          -1855          -3108           -591            247
   5540.00000000           1119            226            741           -637
   5544.00000000           1085           2146            316          -1509
   5548.00000000           -925          -3609            649          -2073
   5552.00000000            385            272           1455           1289
   5556.00000000           -265            548           -103          -2943
   5560.00000000             90           1567           2759            886
   5564.00000000          -2518          -3791           2059           1911
   5568.00000000          -2215           1866          -2465          -1577
   5572.00000000          -1810           -298          -1846           -325
   5576.00000000           1237          -1550           2853           1079
   5580.00000000           1713           3127            866          -1607
   5584.00000000           -387          -1126           4494           -125
   5588.00000000          -1863          -2213           1475          -2655
   5592.00000000          -2219          -1218          -5060          -1360
   5596.00000000            659           1717          -2459           2126
   5600.00000000           1538           2187            892            924
   5604.00000000            102            380           -756           -384
   5608.00000000           2268          -1345          -3195           2927
   5612.00000000            113            733           1044           2343
   5616.00000000          -1055           -225           2472            691
   5620.00000000           -542           -974            861             45
   5624.00000000          -1533          -2145          -4142           1171
   5628.00000000           1803           -628          -2490           1207
   5632.00000000          -1224            223           1898             62
   5636.00000000            -70           1715            605           1999
   5640.00000000          -2305            604           1163            -71
   5644.00000000           -630           -308          -1469          -1439
   5648.00000000          -1794           -742           -370          -3113
   5652.00000000          -1215           -652            481            876
   5656.00000000           -956            213          -1437           -513
   5660.00000000          -2677          -1268           -831             56
   5664.00000000          -1110          -2069            229            641
   5668.00000000            -55            433          -1745           -694
   5672.00000000          -1328            906            608             45
   5676.00000000           1351           -805            397           -412
   5680.00000000           -730           1192           -834           1354
   5684.00000000          -1596           -991           -639            349
   5688.00000000          -1624           1573          -1116          -2887
   5692.00000000          -1731           -670          -1859           -428
   5696.00000000            811          -1431           2483           -389
   5700.00000000          -1780            -72           2133            412
   5704.00000000           1138          -1672           -166           2939
   5708.00000000            433           -414          -2203            720
   5712.00000000           1211           -324          -1179            538
   5716.00000000            -81           3020            -92             71
   5720.00000000           2002           1057           -723            423
   5724.00000000            682           -319          -2670            444
   5728.00000000            689          -1055             68            732
   5732.00000000            923          -2993            -45            407
   5736.00000000            568          -1152           -420           1090
   5740.00000000          -1463           1479           1838           -819
   5744.00000000           1718              6            845            709
   5748.00000000            -68           -952            254           1153
   5752.00000000           -492           -929            840           -910
   5756.00000000           -353          -1420          -1825            254
   5760.00000000          -1491          -1138            773           1431
   5764.00000000           -139           -539          -1804            356
   5768.00000000            469          -1168           1103           -942
   5772.00000000           -881           -499           1564           1993
   5776.00000000             89          -1186          -1414          -3129
   5780.00000000           -449            134           2481          -1487
   5784.00000000           -960          -2029            610           -429
   5788.00000000           -242          -1160           -649           1262
   5792.00000000            590             65          -2012           1371
   5796.00000000          -1331            -91            324           -356
   5800.00000000           -115           2197          -2217           -309
   5804.00000000          -1373           -125           -655           -745
   5808.00000000          -1566          -1962           1030           -189
   5812.00000000           -460            879           -960           -599
   5816.00000000           -787            604          -1653           1227
   5820.00000000           -482           -646           -268          -2328
   5824.00000000          -1899            118          -1068          -1084
   5828.00000000           -307          -1711           1324           -643
   5832.00000000           1123          -1707            260            205
   5836.00000000          -1495          -1824            265           -868
   5840.00000000           1771           -290            -71           1744
   5844.00000000           -711            980           -754           -268
   5848.00000000            296           -945          -1325           1504
   5852.00000000           -188          -2122           3206          -1010
   5856.00000000          -1362            843          -1714            485
   5860.00000000           -590            371           1292           -878
   5864.00000000           -458            938           1302           1558
   5868.00000000           -798            617           1175           -166
   5872.00000000            723           1472           2037           1377
   5876.00000000           -641            155             26           -117
   5880.00000000           2185          -1834           -955          -1653
   5884.00000000             15           2230           -930            259
   5888.00000000            189            313          -1159           1468
   5892.00000000            397           1861           -479           1254
   5896.00000000           -640           -980           -278          -2260
   5900.00000000            138           1177           1843          -2206
   5904.00000000            213          -1352           -935           1097
   5908.00000000           -651           1619          -1297           -748
   5912.00000000            783           -245            304          -2433
   5916.00000000            611          -1540            610            538
   5920.00000000           -907            794            872           -822
   5924.00000000           -556            182          -1058          -3926
   5928.00000000            487            579            834           -122
   5932.00000000           -856            983            663            258
   5936.00000000           -176          -1242            194           1227
   5940.00000000           -237           -880            366           1183
   5944.00000000             96           -107          -2228           1593
   5948.00000000           -934            -25          -1146           1582
   5952.00000000           -481           -554          -2534            -32
   5956.00000000             51          -1061           -760            339
   5960.00000000           1490            283          -1740           1680
   5964.00000000          -1122           -715          -1010           -338
   5968.00000000           -295            416          -1108            330
   5972.00000000          -2472          -1336          -1563          -1273
   5976.00000000           1035            497           1777            162
   5980.00000000            212           -894            883           -825
   5984.00000000          -1965            287           -555            188
   5988.00000000           -609           -375          -1528           -246
   5992.00000000           -384           -337           -256              8
   5996.00000000           -240           -481          -1302           -684
   6000.00000000             47            568           1394           1987
   6004.00000000          -1531          -1718           -655          -1022
   6008.00000000            287            406           -428           -676
   6012.00000000            712          -1397           -907            985
   6016.00000000             72           -589           -297           -837
   6020.00000000            318           -535           1487            201
   6024.00000000            343            -93           -301           -392
   6028.00000000           -577          -1106          -1650           -542
   6032.00000000           -774           1471          -1484            560
   6036.00000000            890            144           -699            128
   6040.00000000           -462            306            950           1315
   6044.00000000           1542            219           -763          -1089
   6048.00000000             40           -796           -513            -39
   6052.00000000           -972           -580           -342            473
   6056.00000000            762           -378          -1474          -2790
   6060.00000000           -617          -1744            881          -2490
   6064.00000000           -482            277           -436           -481
   6068.00000000            -75           -608            -39           -322
   6072.00000000             89          -1031           -817          -2324
   6076.00000000             16            519            211            -64
   6080.00000000          -1061           -800            752           -845
   6084.00000000           -451           1670            317           -117
   6088.00000000            572          -1040          -1103           -914
   6092.00000000           1026            747          -1219            828
   6096.00000000           -891            -73            -61           -831
   6100.00000000           -193           -107           1475           1189
   6104.00000000           1049           1596            -83            331
   6108.00000000          -1282           -293           -787           -639
   6112.00000000            867            316            719            552
   6116.00000000           -881            455             26            246
   6120.00000000           1836           -227            849          -1022
   6124.00000000           -242           -654            203            887
   6128.00000000            207            209           -492            221
   6132.00000000           -986            334          -1242           -914
   6136.00000000            540           -228            318           -121
   6140.00000000           -565           -254          -1685           -467
   6144.00000000           -956            797           -106           -425
   6148.00000000           -766             26           -146           -436
   6152.00000000           1202            132           -112           1531
   6156.00000000           -292           -351             82            243
   6160.00000000           -321            310            687           -820
   6164.00000000           -417           -712           -852           -695
   6168.00000000             81            184           1118           -175
   6172.00000000           -207           -557            167           -891
   6176.00000000           -768          -1827          -1106           -649
   6180.00000000            814           -469            763           -541
   6184.00000000            960           -438           -346           -589
   6188.00000000            216          -1769            -24           -982
   6192.00000000           1141            648             86           -123
   6196.00000000            450            129            -74            178
   6200.00000000             56           -983           -332           -109
   6204.00000000           1020           -431           -733            -61
   6208.00000000           -540             60            102           -512
   6212.00000000           -586             66          -1014           -940
   6216.00000000           -581           -339           -166             26
   6220.00000000            667            189           1073            495
   6224.00000000            147           -269            529           -686
   6228.00000000           -244           1043           -662           -572
   6232.00000000           -931            346            451            -77
   6236.00000000            -72            440            108           -344
   6240.00000000            802            983           -665           -557
   6244.00000000           -334           -735            455          -1141
   6248.00000000            -32            -93            518            893
   6252.00000000             14           -699           1081           -428
   6256.00000000            437           -262           -963            414
   6260.00000000          -1066           -192          -1195             90
   6264.00000000             59            362             20           -610
   6268.00000000           -412          -1346            -82            437
   6272.00000000            185           -846           -629           -497
   6276.00000000            -34            471            510            -79
   6280.00000000            707           -259            286           1122
   6284.00000000             14           -563           -150          -1614
   6288.00000000          -1703            394            -31           -105
   6292.00000000           -435           -264            342            948
   6296.00000000            -60           -585            844           1398
   6300.00000000           1083            699           -656            335
   6304.00000000            826           -106           -407            996
   6308.00000000           -533            688           -729           -117
   6312.00000000            124          -1142           -443           -422
   6316.00000000            466           -184            199             51
   6320.00000000           -921            840             94           -777
   6324.00000000           -399           -374            947            215
   6328.00000000           -466             -8           -394            -82
   6332.00000000           -287           -549           1254             13
   6336.00000000            307             18          -1061            646
   6340.00000000           -239           -618           -214           -555
   6344.00000000          -1057            375          -1258           -912
   6348.00000000           1067          -1039           -445            -41
   6352.00000000           -543            348            436            121
   6356.00000000           -158            257          -1197            147
   6360.00000000           -667            223            -38            336
   6364.00000000            236            -45           -129          -1050
   6368.00000000            109            224           -153             84
   6372.00000000            650            -42            632           -244
   6376.00000000             48            100            107           -279
   6380.00000000            -23            535            483            528
   6384.00000000           -906           -232            956           -508
   6388.00000000           -500            295            559           -561
   6392.00000000            223           -680           -125          -1021
   6396.00000000            174            236           -652            356
   6400.00000000           -158           -427            -10           -650
   6404.00000000           1341             48           -251           -713
   6408.00000000           -669           -227          -1353            207
   6412.00000000            747           -161            273           -507
   6416.00000000            280           1218            459            377
   6420.00000000             62           1019           -772            506
   6424.00000000            546           -140            460            559
   6428.00000000           -992            228           -176             39
   6432.00000000           -297            736            496           -243
   6436.00000000           -886           -740            448           -437
   6440.00000000            179            141           -186           -334
   6444.00000000            459            -59             96           -549
   6448.00000000            675            536            405           -491
   6452.00000000            571           -589            539           -504
   6456.00000000            -25           -869           -231            263
   6460.00000000            370            269            208           -366
   6464.00000000             30             62           -771            333
   6468.00000000            -84            630            -90           -659
   6472.00000000           -172           -417          -1035           -122
   6476.00000000           -527           -133            -68            657
   6480.00000000           -282            271              3           1073
   6484.00000000            209            -88            -84          -1212
   6488.00000000           -441            429           -581            398
   6492.00000000            788          -1229            -33           -693
   6496.00000000            -45           -552            257           -182
   6500.00000000              5           -547            537           -375
   6504.00000000           -263           -186           -251            -10
   6508.00000000            357            800            -93            276
   6512.00000000           -438            373           -194            508
   6516.00000000           -396            218           -356           -213
   6520.00000000            294           -431           -251            325
   6524.00000000            409             24            108           1077
   6528.00000000           -257             35             84           -268
   6532.00000000           -100           -359            -17            654
   6536.00000000            199            117            589             30
   6540.00000000           -443           -632            254           -438
   6544.00000000           -189           -102           -369            934
   6548.00000000            396            594           -414            167
   6552.00000000           -219           -154            790             -0
   6556.00000000           -194           -217           -374            177
   6560.00000000            352            295           -472           -287
   6564.00000000            164           -273           1179             36
   6568.00000000           -413            465           -274            386
   6572.00000000           -776            120            -36            350
   6576.00000000            508           -391           -321             58
   6580.00000000            165            890           -370            -62
   6584.00000000             55            -66           -366           -112
   6588.00000000             32            451           -550            162
   6592.00000000             75            188           -165           -220
   6596.00000000             75           -297           -181           -320
   6600.00000000           -191            645            288            241
   6604.00000000             -0           -371            -27            195
   6608.00000000            121           -338            706           -313
   6612.00000000            369            177           -308             29
   6616.00000000           -276           -873            274            839
   6620.00000000              6             54            224           -267
   6624.00000000           -304           -106           -264          -1005
   6628.00000000           -211            150            219           -459
   6632.00000000            925             88             25           -651
   6636.00000000           -253           -177             40           -198
   6640.00000000           -967            611           -402            483
   6644.00000000            485           -413             50            342
   6648.00000000           -141           -135           -228            -20
   6652.00000000            186           -311            512            266
   6656.00000000           -540           -648           -192           -154
   6660.00000000            187            -98              4           -247
   6664.00000000            -76            527            713            323
   6668.00000000            309            448            466           -360
   6672.00000000              8             19            676            377
   6676.00000000           -200           -117            291           -351
   6680.00000000            123           -411            104            248
   6684.00000000            675            307            -39            -62
   6688.00000000             -9            374             44           -291
   6692.00000000            230              6           -504            481
   6696.00000000            205            201            262            256
   6700.00000000            -62           -693            572           -347
   6704.00000000           -466            157           -103            -24
   6708.00000000            337           -774           -119            358
   6712.00000000            -81            148           -155           -191
   6716.00000000            219           -249           -764            547
   6720.00000000            -49            334             73           -217
   6724.00000000            174            525            118           -283
   6728.00000000            136            -57           -126            268
   6732.00000000             45            312           -166           -267
   6736.00000000           -278            804           -115            -87
   6740.00000000            532           -171             10           -436
   6744.00000000            448           -358           -307             32
   6748.00000000            -65            440            111           -614
   6752.00000000            305            706           -445            106
   6756.00000000            561            210            -72            600
   6760.00000000            131           -455            135            252
   6764.00000000           -261           -828           -298            -60
   6768.00000000           -498            220           -214            448
   6772.00000000            190            152           -143           -119
   6776.00000000           -135            337            416            146
   6780.00000000            168           -429            542           -574
   6784.00000000            324           -810           -233           -162
   6788.00000000           -253            534            278            482
   6792.00000000            228           -203            699            323
   6796.00000000             84            359           -295            -42
   6800.00000000            254           -106            525            117
   6804.00000000           -225            381           -741            -50
   6808.00000000            272           -426           -177            381
   6812.00000000            379           -139           -239            446
   6816.00000000           -432            119             36            -44
   6820.00000000           -176           -736            594           -160
   6824.00000000           -436            103           -120           -486
   6828.00000000            317             62           -221            186
   6832.00000000             80            101            119           -230
   6836.00000000            612            204             18           -570
   6840.00000000           -248            185            -38           -292
   6844.00000000            419           -273           -355            179
   6848.00000000            199           -328           -655            -75
   6852.00000000           -628            473           -195            399
   6856.00000000             29           -230            -52           -122
   6860.00000000           -198           -300           -237            316
   6864.00000000             26            284           -504            -71
   6868.00000000           -180           -268            -53           -286
   6872.00000000            534           -114           -102            314
   6876.00000000            268            351            514            133
   6880.00000000            513           -171           -435            490
   6884.00000000            -21            186             36            197
   6888.00000000             58             87           -342            374
   6892.00000000            -15            197            -20            275
   6896.00000000            358            382            245              5
   6900.00000000             79            -95            669           -201
   6904.00000000            254             57             89            359
   6908.00000000           -364            459           -577           -312
   6912.00000000            -86             87           -262           -451
   6916.00000000            145           -204              6            290
   6920.00000000             15            107           -542           -363
   6924.00000000            -44            118            177           -443
   6928.00000000            -32           -150            150            183
   6932.00000000            665           -181            240           -238
   6936.00000000             -8           -187            164           -361
   6940.00000000             14            -22            143            247
   6944.00000000           -256           -527            -42            176
   6948.00000000           -284            253             70           -314
   6952.00000000            244              8           -379            120
   6956.00000000           -278             47           -527           -203
   6960.00000000            381            365             84             21
   6964.00000000            -15            634            603            -55
   6968.00000000             -1             46           -123           -239
   6972.00000000            -25           -164            253           -475
   6976.00000000            -58           -116             32             53
   6980.00000000           -164           -156           -205            252
   6984.00000000            177             16            164           -374
   6988.00000000            -25            404            -80            116
   6992.00000000            151            118            567            201
   6996.00000000            191            -17           -212           -445
   7000.00000000             60            168            387            234
   7004.00000000            383            -36           -441            -43
   7008.00000000            207           -143           -134            406
   7012.00000000            180           -113           -112            607
   7016.00000000           -174           -152            -75            123
   7020.00000000            -33             30            -60            -44
   7024.00000000            -64              9            417             61
   7028.00000000           -245            245             25           -285
   7032.00000000            137             -4           -290            198
   7036.00000000           -353           -409            -30           -495
   7040.00000000            322              7            -44            -83
   7044.00000000           -490              4           -207            521
   7048.00000000            145            200           -191            -65
   7052.00000000           -237            221            283           -282
   7056.00000000           -182           -129            -26            202
   7060.00000000            234            -28           -124            -73
   7064.00000000           -114            146           -146            111
   7068.00000000             75            -68           -398            -96
   7072.00000000              5             57           -108           -198
   7076.00000000            213            -39            276            147
   7080.00000000           -409            439           -379             95
   7084.00000000            114             83           -215             25
   7088.00000000           -295             70           -456           -121
   7092.00000000            377            316             40            471
   7096.00000000             46           -153           -182            305
   7100.00000000            345            149           -302            389
   7104.00000000            112            -74           -312             55
   7108.00000000            -74           -261            -40            298
   7112.00000000           -379            196            -68            -37
   7116.00000000            -14             32             66           -108
   7120.00000000             64            213             44            -46
   7124.00000000            353           -276           -193             47
   7128.00000000            -76             28            327           -152
   7132.00000000             99             -4             42            279
   7136.00000000           -329              7           -231           -342
   7140.00000000            122            211            -99            324
   7144.00000000            136            103            238            -16
   7148.00000000           -122           -207           -114            213
   7152.00000000           -241             63            166            404
   7156.00000000             -3            327             94           -188
   7160.00000000           -292           -255           -310            138
   7164.00000000            209            -66            140            322
   7168.00000000             -9             94            -94            -50
   7172.00000000             -9             14            130            -64
   7176.00000000             67            288             59           -427
   7180.00000000           -128            384            188            421
   7184.00000000           -273             41             52            255
   7188.00000000           -211            126            343             31
   7192.00000000             61            -83            -54            196
   7196.00000000            -71            309           -262            124
   7200.00000000             16             -7           -243            118
   7204.00000000           -412             35            -82             29
   7208.00000000            -50             47           -309            224
   7212.00000000           -145             62            166            211
   7216.00000000           -224             68           -190            -93
   7220.00000000           -439            176             90           -235
   7224.00000000            -14            -20            179             87
   7228.00000000            189            136           -216            -15
   7232.00000000           -166           -104           -352             61
   7236.00000000           -219           -158             28            148
   7240.00000000            -67           -317           -128           -203
   7244.00000000           -173            -86           -115           -182
   7248.00000000           -236            355             94             93
   7252.00000000             43            225           -188            -43
   7256.00000000           -142             25            118            230
   7260.00000000             85            246            207            146
   7264.00000000             53           -239           -159            -87
   7268.00000000             26            183             88            366
   7272.00000000            121            405           -148            -58
   7276.00000000           -325            281            -67            -84
   7280.00000000           -235            187             62            122
   7284.00000000            399             76           -230             23
   7288.00000000             17              8           -110           -244
   7292.00000000           -105            152           -100            -54
   7296.00000000             91            -69              8           -365
   7300.00000000            541             99            140           -134
   7304.00000000             -0            -91           -148             46
   7308.00000000           -225            305            317           -218
   7312.00000000            131            -43           -311            -47
   7316.00000000            124            -85             13            -21
   7320.00000000            -89            -27           -108            109
   7324.00000000            208            128             71             38
   7328.00000000            -97           -221           -187             53
   7332.00000000            117              8           -110           -326
   7336.00000000            116            -59             20             10
   7340.00000000             28           -240           -164             90
   7344.00000000             18            423            -78           -134
   7348.00000000              3            -10             99            -18
   7352.00000000            376           -200           -337            105
   7356.00000000            311             11           -140            -95
   7360.00000000            -73             62            107             36
   7364.00000000            315            220            143           -140
   7368.00000000              9           -182             55            339
   7372.00000000           -215             69            -87            188
   7376.00000000           -222            298            -35             27
   7380.00000000            -81           -284           -144           -275
   7384.00000000             54           -174            183            -55
   7388.00000000            268           -172             31             96
   7392.00000000            -84           -317           -126            209
   7396.00000000             16            -79             45            -31
   7400.00000000            150             50            -26            -81
   7404.00000000            180            192            181           -103
   7408.00000000             62           -170            -73           -202
   7412.00000000           -175           -362           -354            -26
   7416.00000000            -78            -58            150            174
   7420.00000000             71             18            -69            -23
   7424.00000000           -126           -153            -98             80
   7428.00000000            -46            -38           -306            -49
   7432.00000000            113            -30             37           -312
   7436.00000000            -41           -301             31            185
   7440.00000000             19            -69           -168            242
   7444.00000000            261           -128           -110           -318
   7448.00000000            111           -158            156             10
   7452.00000000           -101             66            -88           -136
   7456.00000000           -183             98           -197            -10
   7460.00000000           -151             61              2             37
   7464.00000000            -46            103           -255            -78
   7468.00000000           -101           -159            -24            -41
   7472.00000000            134            124           -299            -14
   7476.00000000             39             -8             50            -59
   7480.00000000            -26            121             -1            226
   7484.00000000           -183            339             51            -66
   7488.00000000           -248            -82             84             24
   7492.00000000             73           -101            -42           -208
   7496.00000000             50            165            207            -42
   7500.00000000            -34            -60           -117           -130
   7504.00000000            -35             41             38            -29
   7508.00000000              2             -8              4            -69
   7512.00000000             39             36           -114             57
   7516.00000000            -40           -146           -138            -65
   7520.00000000            252            241           -245             42
   7524.00000000            -63             32            157            -92
   7528.00000000            -37             22            -74            -11
   7532.00000000            120            -18            -41           -170
   7536.00000000            149            -17             59             72
   7540.00000000            -69            -13           -130             68
   7544.00000000            -10             87             32            -96
   7548.00000000             92            279            -16            100
   7552.00000000           -142             60            -89            -35
   7556.00000000           -143             73            -42            179
   7560.00000000            196            171            103            -88
   7564.00000000             -1             72             52           -145
   7568.00000000             62             46             76            -47
   7572.00000000             23            -20           -171              4
   7576.00000000             -2             17            268             88
   7580.00000000             15              0            100            -92
   7584.00000000           -115             -1            -60            -22
   7588.00000000            -99             63             54             68
   7592.00000000             82            185              3            150
   7596.00000000             28            118           -116           -123
   7600.00000000             95             20            -16            200
   7604.00000000             25            -61             94            160
   7608.00000000            -99             31            -63            175
   7612.00000000            -12             20            102             64
   7616.00000000           -212             86            217           -225
   7620.00000000           -177             69             51             11
   7624.00000000           -225           -126             -4            -45
   7628.00000000             80             -0            171             89
   7632.00000000            -13           -188             82             94
   7636.00000000            -63            155             20             -1
   7640.00000000            -65              8             55             61
   7644.00000000            -46           -140            -63             65
   7648.00000000           -160            -93             15            110
   7652.00000000            152             48            -46             -7
   7656.00000000             80             93           -237            115
   7660.00000000            -94            -44             53           -143
   7664.00000000            -70            181            -84            -64
   7668.00000000            -62           -115            -68            267
   7672.00000000            -33            195           -144              2
   7676.00000000           -138            -65            135           -117
   7680.00000000             24             72             84            -69
   7684.00000000            137            -72            175           -123
   7688.00000000             72            -49           -111             40
   7692.00000000             37              7            -11             64
   7696.00000000            -25            -49             80            -52
   7700.00000000            -39             71           -149            -34
   7704.00000000            -23            135           -249            -83
   7708.00000000            -70            -62            -26             17
   7712.00000000            -42            -45            222             40
   7716.00000000            -84             85            112            169
   7720.00000000            -48            -26             62            -48
   7724.00000000              7             38             82             60
   7728.00000000            -41           -198           -113            -53
   7732.00000000            153             59            -72            -80
   7736.00000000             27             61            -45           -180
   7740.00000000             37           -140            -85             40
   7744.00000000           -219            -20              7              0
   7748.00000000           -126             27            -21            195
   7752.00000000             86           -203             29             -7
   7756.00000000            -22            -11             97            -37
   7760.00000000            -78             60             54            -16
   7764.00000000            111            127             71            -98
   7768.00000000             18           -153             -6            -52
   7772.00000000            -16            -34            -24             16
   7776.00000000             77            -82            -30             30
   7780.00000000            -29            -80            156             98
   7784.00000000             83              1             80             11
   7788.00000000             45            -44           -102            -62
   7792.00000000             62             44            187           -109
   7796.00000000            137            -28             -3           -105
   7800.00000000            -62            -40              9            -21
   7804.00000000           -112            -69            -65           -103
   7808.00000000            -95             81             38              3
   7812.00000000           -112            -70            -38             30
   7816.00000000            137             11            -43            -28
   7820.00000000             88            -32              1            -10
   7824.00000000              4           -169            -25             78
   7828.00000000            -68             79             17             45
   7832.00000000            -34           -159            -99             97
   7836.00000000           -188              6             78            -50
   7840.00000000           -172            -22           -107            -20
   7844.00000000            -16           -129             -2            -28
   7848.00000000            126            -17             58              5
   7852.00000000            -39            -48              1             30
   7856.00000000             27            114            -44            -67
   7860.00000000            181            -20             42            -62
   7864.00000000            -74            -45            -67           -113
   7868.00000000             22             45            -21             78
   7872.00000000             71            -11            -29              0
   7876.00000000            138             37             -3            -11
   7880.00000000            -62             29             18            -78
   7884.00000000             99            -61            140             99
   7888.00000000            -24             10            -76            -61
   7892.00000000             -1             13             -8            -75
   7896.00000000             38            -43            -38            -37
   7900.00000000            -14            -59           -168             36
   7904.00000000            -29            155             -9             18
   7908.00000000            -32            111            -29           -168
   7912.00000000             14            118             41            116
   7916.00000000            -54            -72             -6            -56
   7920.00000000            -73             -6             39             97
   7924.00000000           -137            -43            -14             52
   7928.00000000              4             18           -146           -107
   7932.00000000            -49             99             42            -25
   7936.00000000             16           -134             26            -24
   7940.00000000             17            -75             86            -69
   7944.00000000            130             81             78           -146
   7948.00000000             80            -89            -49             66
   7952.00000000            -49            146             60             61
   7956.00000000             52             37             23           -129
   7960.00000000            -25           -147             54             44
   7964.00000000            117            -24              9             71
   7968.00000000            -18            -34             37            -92
   7972.00000000             45             93             27            -10
   7976.00000000             70            -20            -49             68
   7980.00000000            -52            -21             -4            -66
   7984.00000000            -48            -35            -67            -67
   7988.00000000             86             20             62            112
   7992.00000000            -33             66             10             -4
   7996.00000000            -17             43           -135            -27
   8000.00000000             88           -144             77            -30
   8004.00000000             48            102             60             86
   8008.00000000            -10            -71            -25            -68
   8012.00000000            -65            -90             20              1
   8016.00000000             18             76            -60            -16
   8020.00000000            -76            -59            -43             47
   8024.00000000            155            -84            -26              5
   8028.00000000            -30             64             94             40
   8032.00000000             76             17             22            -18
   8036.00000000            118             31            -41              4
   8040.00000000             19            -64            -57             23
   8044.00000000            -54             -1            -84              7
   8048.00000000             53             59              6             36
   8052.00000000             96             66            -22             34
   8056.00000000             44            -28             33            118
   8060.00000000             32            -84             76             11
   8064.00000000            -93             -9              3             82
   8068.00000000             49            -22             69             68
   8072.00000000             40           -120             69            -10
   8076.00000000             84             -6             76             18
   8080.00000000              5            133            112             60
   8084.00000000             29            -67             63             80
   8088.00000000            -61             60             -3             40
   8092.00000000            -49             78             18             47
   8096.00000000            -22            -98             28            -11
   8100.00000000             27           -102             15            105
   8104.00000000            -41             61           -128           -121
   8108.00000000             -1              8            -27             20
   8112.00000000            -65             31           -102            -20
   8116.00000000             56             61             33             28
   8120.00000000            136             53             35            -29
   8124.00000000             73             81             71             31
   8128.00000000             82            -57             14             17
   8132.00000000           -102             52             77             56
   8136.00000000             77            -64            -86             10
   8140.00000000            -33             60            -60             -5
   8144.00000000              4             -8            -30            103
   8148.00000000             18             56             73             47
   8152.00000000            -36            -16            -59             67
   8156.00000000             55             33              6             45
   8160.00000000            -48             24             29             58
   8164.00000000            -60            -34             80            -90
   8168.00000000             49            -40            -86              4
   8172.00000000            -51             17            -49             50
   8176.00000000             -7             16             58             -5
   8180.00000000              4            -74            -32              8
   8184.00000000              1            -68              8             23
   8188.00000000             32            102             26            -90
##PAGE=N=2
##DATA TABLE= (X++(I..I)), XYDATA
      0.00000000      640213262      458006098      382716603      547062334
      4.00000000      664151844      356833427     -344821084    -1098634626
      8.00000000    -1451341483    -1150091283     -224611559      939601294
     12.00000000     1759995644     1729841374      798261410     -524056797
     16.00000000    -1444692255    -1508269105     -848287270       -3680346
     20.00000000      534325822      639407206      499368166      333808081
     24.00000000      277113433      279637132      184765458     -154047926
     28.00000000     -689109007    -1119481161    -1028707392     -285816925
     32.00000000      774780849     1506831566     1440269757      609870341
     36.00000000     -470542682    -1202935095    -1253631515     -716291078
     40.00000000       41263182      586916378      699307024      448278477
     44.00000000      125836766       -3820721       84789073      161494871
     48.00000000       -1825537     -405741771     -768285340     -762449225
     52.00000000     -268218741      477542084     1046682261     1083201790
     56.00000000      540387410     -286153167     -927136824    -1034696595
     60.00000000     -597533140       64807811      542075471      605969490
     64.00000000      342791890       33251849      -84880560       -1235999
     68.00000000      107605442       41959001     -219874948     -508816844
     72.00000000     -562705787     -257667533      291986542      763159266
     76.00000000      845986525      457574171     -192497679     -719004908
     80.00000000     -826487909     -489277089       49547752      449309780
     84.00000000      516848316      300112588       18318764     -120415944
     88.00000000      -69114706       46669229       53872167     -112881956
     92.00000000     -337156533     -420362517     -224530886      181056972
     96.00000000      563233495      660056747      382464884     -125366361
    100.00000000     -556259867     -665255785     -411167631       26235545
    104.00000000      374147003      449758682      274326713       16453466
    108.00000000     -131226157     -110956798         497012       46693624
    112.00000000      -44765886     -214339247     -301202323     -187028273
    116.00000000      109000884      404101900      505099540      316126589
    120.00000000      -68905640     -420674189     -531545210     -347250549
    124.00000000        5888865      303420010      384597115      239507139
    128.00000000       12726127     -134602864     -124023296      -26381060
    132.00000000       43815622         542124     -127153121     -214817226
    136.00000000     -154303664       48549246      285637901      382072057
    140.00000000      260103844      -32155037     -317323359     -420758114
    144.00000000     -283074298       -4872260      240558848      309028832
    148.00000000      202081048       14874920     -115024735     -122735055
    152.00000000      -44425657       29177087       22231953      -61739202
    156.00000000     -136107216     -120750499       12832553      185629596
    160.00000000      278761157      207456640       -2310312     -225345306
    164.00000000     -318862409     -232987078      -21885311      180354474
    168.00000000      255636703      177701720       25827812     -100930897
    172.00000000     -127324983      -63380708       17313341       41013689
    176.00000000       -9872301      -82817652      -93959575      -14534871
    180.00000000      113149996      197097844      163256309       18444847
    184.00000000     -151288628     -240817992     -191550725      -37654378
    188.00000000      129659909      209163336      167142793       38226129
    192.00000000      -88243609     -130015724      -81844237        5240813
    196.00000000       53565946       30633677      -35166502      -72991926
    200.00000000      -33706227       59639032      137008063      129510406
    204.00000000       32976722     -102286562     -185537288     -162070711
    208.00000000      -42210843       98934905      178615983      149204988
    212.00000000       41280650      -76216574     -125508274      -89244093
    216.00000000      -10686376       48935824       48273829        2576496
    220.00000000      -39172315      -33045797       21769089       78296570
    224.00000000       89592122       35190381      -59558012     -134282825
    228.00000000     -128192992      -42611099       72605036      146363203
    232.00000000      135112804       44719061      -60673158     -120019995
    236.00000000     -100389653      -29117410       41948889       65025925
    240.00000000       39974245       -5001660      -27826061      -10404709
    244.00000000       30669466       53280943       32761641      -28189962
    248.00000000      -85304793      -95662158      -41620483       44533490
    252.00000000      111807053      113053089       47032207      -44495563
    256.00000000     -106856698     -101923999      -41916657       32752703
    260.00000000       73892553       59745986       16753319      -24356664
    264.00000000      -31934332       -6233999       23919135       27427621
    268.00000000       -4838907      -46199433      -62342001      -36057928
    272.00000000       23670105       78361109       92324634       48286732
    276.00000000      -28497831      -88316254      -95052426      -47822932
    280.00000000       24640968       71883975       70576223       29267796
    284.00000000      -17874245      -41833933      -29730467        1819388
    288.00000000       21965647       12366583      -16172264      -40970214
    292.00000000      -32245222        7074397       53352465       71008636
    296.00000000       43104724      -16085526      -67995685      -80765589
    300.00000000      -46768070       13914402       65505934       73527027
    304.00000000       38993809      -14596522      -46725774      -43795203
    308.00000000      -14277017       17567007       24518000        5185427
    312.00000000      -19549810      -26316354       -4134006       27414366
    316.00000000       45032748       33696233       -2977501      -46683813
    320.00000000      -65462474      -43895393        8508301       55334822
    324.00000000       71061205       38097202      -14037509      -51049020
    328.00000000      -51177185      -22457360       13522062       31500040
    332.00000000       24241040         828672      -16964876      -16399317
    336.00000000        3151996       27074107       28369462        3465164
    340.00000000      -32849630      -52264354      -35732965        6150207
    344.00000000       46695940       55190844       31810586      -10004719
    348.00000000      -43898173      -50610224      -27417398        9145054
    352.00000000       34733022       35191092       12054618      -16912688
    356.00000000      -21366771       -6847007       11644008       20907810
    360.00000000        7706426      -17632060      -32653262      -25324764
    364.00000000        2822832       31842565       44821672       30358410
    368.00000000       -2980296      -35737817      -47523909      -29729310
    372.00000000        7843246       35048123       37330327       15637863
    376.00000000      -10162206      -22522831      -16300912        2248756
    380.00000000       15285253       11237050       -4108923      -18732830
    384.00000000      -21093164       -4493047       20091639       35258742
    388.00000000       26330938        1643311      -30975261      -42102854
    392.00000000      -27067738        3476809       27348397       34078809
    396.00000000       20852894       -7803675      -22345239      -21362470
    400.00000000       -4380894       10042237       14734558        2568315
    404.00000000       -9926670      -16901459       -8928287       10668217
    408.00000000       24886066       22246786        2516160      -21438080
    412.00000000      -32088504      -22429361       -1934917       21240762
    416.00000000       30118002       18241026       -3063668      -20646713
    420.00000000      -21110691       -6958175        7287011       16378769
    424.00000000        7342418       -5800103      -12982886       -6715281
    428.00000000        3959188       14985319       17179685        4448804
    432.00000000      -11964746      -22210120      -18029643       -1738451
    436.00000000       14285811       22867018       14413537        1123700
    440.00000000      -14820378      -17932790       -8060847        4596859
    444.00000000       11741337       10955349         -38602       -6935621
    448.00000000       -9673962         480388        9975602       10997349
    452.00000000        5524810       -4548707      -13573300      -12069254
    456.00000000       -3161754        9033206       15498037       12095067
    460.00000000         719528      -10985963      -15098843      -10026211
    464.00000000        1234199       10131979       10271110        3609816
    468.00000000       -4365119       -6980599       -4404925        3162450
    472.00000000        5466960        4626459       -2646561       -7877930
    476.00000000       -9125336       -1741784        6667523       10794910
    480.00000000        8363562         437958       -7200021      -11468301
    484.00000000       -7418005        1205216        6243413        8242071
    488.00000000        2706904       -1463316       -5954956       -5082590
    492.00000000        -269999        2980253        4417708         101182
    496.00000000       -3052239       -4779475       -4492049        3357819
    500.00000000        6783967        5240434        3333614       -3490746
    504.00000000       -6583610       -4206277       -1387840        3719044
    508.00000000        5454861        4367279        -743115       -4193896
    512.00000000       -3790229       -1425553        1256890        4466682
    516.00000000        1454255        1611368       -2625407       -1423466
    520.00000000        -294917        2491628        3111247         959595
    524.00000000       -1413038       -3366586       -4108110        -995112
    528.00000000        2896333        4757434        2952573         907711
    532.00000000       -1737510       -5214545       -1775542       -1472911
    536.00000000         476695        2285295         342376        -542380
    540.00000000       -1637235       -1182104         648032        2858065
    544.00000000         690754        -445290       -2017161       -2431909
    548.00000000       -3506637         877297        2221264        4495945
    552.00000000        -347996        -833552       -4003990       -2244196
    556.00000000       -1440795        2358314        1533925         713379
    560.00000000         197300       -1054283       -2180172       -2241079
    564.00000000        -159836        1141622         107099        -811621
    568.00000000       -3463823       -2668258        -512712        1101986
    572.00000000         880478        1351239         261934       -2619931
    576.00000000       -1994070        -622011        1720334        2660215
    580.00000000        3456555          44314       -1593022       -2171698
    584.00000000        -400679        1077869         179479        2225211
    588.00000000        -398111        -478222        -204096        1289717
    592.00000000        1600176        1664857        -273089       -1113007
    596.00000000        -373294       -3084489       -1725006        1551565
    600.00000000        3436274        1779254         149620        -167944
    604.00000000       -2993847       -2276755        -553592         369674
    608.00000000        1851650        1407657       -2132480       -1216653
    612.00000000        -629082         194310        1361232        2051924
    616.00000000         185208        -203528       -3505082       -1729947
    620.00000000        1248378        1574054         -13642         723382
    624.00000000        -203218       -2059081       -1878386        1521835
    628.00000000         243508        -207590        -473431        -929319
    632.00000000        -402629       -1325071        -206591        2213007
    636.00000000         472754         452883       -2186025       -1460701
    640.00000000        -262526        1796961        2885068        1758440
    644.00000000        -381972         137360        -599673        -573054
    648.00000000         510584        1394380        1361540         315606
    652.00000000       -2270403         209063         381647        1586709
    656.00000000         581969        1495354        -439221       -2271773
    660.00000000        -506843        -490857         123119        -579938
    664.00000000        1302848         359664       -1164564        -466012
    668.00000000         402513        1489942         939455         434625
    672.00000000        -556146       -1608188       -1112449        -279634
    676.00000000         248141          63198       -1012236       -1027532
    680.00000000       -1360232       -1169607        -820827        1359960
    684.00000000         171132         519317         232827        -631271
    688.00000000         164379        -768640        1005996         -64655
    692.00000000       -1300612         304972        -172410       -1346228
    696.00000000        1292622         926089        1908917         -27642
    700.00000000         525730        -405599       -1072004         633083
    704.00000000          58686        -316088        2236333          94711
    708.00000000        -379925        -344527       -1173988         399766
    712.00000000       -1483019         150575        -240265        -849332
    716.00000000       -1961424         749207         511127         370060
    720.00000000        1168336        -468750        -705018       -1367073
    724.00000000        -495245       -1207097        1363954         414766
    728.00000000        1982914        -611133         794127        -189396
    732.00000000         259526        1116447        -352863          39342
    736.00000000        -913472          23278         910198         926484
    740.00000000         155972        -446063        -357460         632728
    744.00000000         112116        1165368        -393502       -1191898
    748.00000000        1704638        1499202           4712        -470198
    752.00000000       -1108896       -1033294        -835975         409186
    756.00000000         166256        1199312         468186         -13840
    760.00000000       -1094003        -246873           8730         506857
    764.00000000        -793974        1559660         686125        -107016
    768.00000000         395004        -887330       -1014553           7453
    772.00000000        -514885         666157         769666          58592
    776.00000000        1012318         635338        1173901         270702
    780.00000000        -120772        -275353       -1101225         260579
    784.00000000       -1689015        -482439        -693462        -854914
    788.00000000        -161068        -140345        -353257          68864
    792.00000000        -217327       -1165846        -875479        -955634
    796.00000000         454039          42266        -324787         -17640
    800.00000000        1192942        -197037        -803826         562180
    804.00000000       -1271656         126848        -730865        1436634
    808.00000000       -1299564       -1316169         851130         163392
    812.00000000        1262614       -1149716         770361         291519
    816.00000000        -154271         728767         148829        2944620
    820.00000000       -1124294         730357       -1282163         635351
    824.00000000        -491095        -469901       -1719809         638784
    828.00000000        -973542        -375360        -637196         336353
    832.00000000         993645         157123       -1030145         699659
    836.00000000         417114         866228         -94081         176203
    840.00000000       -1228692         765728         482198         -63612
    844.00000000       -1115476        -689330        -946841         892969
    848.00000000         607725         719588         341708         628774
    852.00000000       -1006711        -982164         -12501        1054609
    856.00000000         624144         730369         -50215         367731
    860.00000000         497349        -640590        -229430         398839
    864.00000000        -634874           9998        -436017        -323381
    868.00000000        1049165         760222       -1034922         887565
    872.00000000          16095         -70768       -1242360         -87262
    876.00000000       -1758717        -597573          75764         141378
    880.00000000         286842        -233947        -404849        -320098
    884.00000000         166254         412342        -819841        1493425
    888.00000000        -763523         777418         724745         683528
    892.00000000        -354667         416200       -1416705         426886
    896.00000000       -1458770         485939         568500         111868
    900.00000000           5509        -821185         445315         292469
    904.00000000       -2036586        -368553         431640       -1512576
    908.00000000         292902        -510691       -1065511         416943
    912.00000000        -491139        -434884         474797        -225552
    916.00000000        -934031       -1021984        -234643        -954457
    920.00000000        -244904          14003        -338288       -1029771
    924.00000000        -476941         284806       -1425402        -957530
    928.00000000           7282         378555        -296883          91459
    932.00000000        -942431         594138         696122         308039
    936.00000000       -1368708         772487         195086         300792
    940.00000000         338344        1223104        1066589         216397
    944.00000000         831539         503487         336924        -282404
    948.00000000        -784174         -19518        -390351         -22463
    952.00000000        -578549        -204136         602336        -681077
    956.00000000         186046         928424        -403826        -524298
    960.00000000        -519994        -173358        -266581         917024
    964.00000000        -829189         117794        -853207         272300
    968.00000000        -847413        -530064         886311         372271
    972.00000000       -1512045        1235798       -1289147         175427
    976.00000000        -163672         -57290        -280688       -1498588
    980.00000000       -1681598         505885        -483321         427504
    984.00000000         866968        -106467        -439209       -1032192
    988.00000000       -2202926         145591         -87313        -668408
    992.00000000        -529490         509509        -328696         291585
    996.00000000         272012         -15518        -348701         291754
   1000.00000000        -232869         163740         237245        -872280
   1004.00000000        -299199        -125728         195998         191384
   1008.00000000       -1580908         719492        -824066        -120657
   1012.00000000        -256377         320135        -483399         384923
   1016.00000000         170037         214545         -68991        1033430
   1020.00000000         398708         780811         293445         -58320
   1024.00000000         309735         252283         172188         466093
   1028.00000000        -848571          19286        -726555        -440647
   1032.00000000        -247892         770225        -626562        -247879
   1036.00000000        -540922        -661623        -800128       -1236555
   1040.00000000          51800        -665688        -897911       -1589343
   1044.00000000          32242        -182730        -203644        -576971
   1048.00000000        -664533         -98981         225104         124239
   1052.00000000         -62393         -83188        -109712         581825
   1056.00000000        -816449        -164090         386908         590544
   1060.00000000         504063        -110690        -339389         441614
   1064.00000000         -72009        -509210          34069         182515
   1068.00000000        -626219        -894308       -1016526         300887
   1072.00000000       -1178855        -225233         937720         516817
   1076.00000000        1274088        -160013         647254         -90596
   1080.00000000         198826         843403        -292497         613869
   1084.00000000         265188        -543146          31801        -603396
   1088.00000000        -492887         461815        -236945          85580
   1092.00000000        -158948        -433403        -509199         -19047
   1096.00000000         726725        -127621        -168176        -597345
   1100.00000000         827392         -31565        -379038        -429970
   1104.00000000        -573787         -24745        -206034           5531
   1108.00000000        -226639         653751        1056057        -314000
   1112.00000000        -220748        -947835         655285         101366
   1116.00000000        1017438         220955        1189544        -490885
   1120.00000000         624693         891278         174087         153576
   1124.00000000         179532         772547        -354639        -358784
   1128.00000000        -265515        -599108        -286969         718544
   1132.00000000         150552        -410724        -117405        -295208
   1136.00000000        -205633         696139        -825061         803723
   1140.00000000        -959583        -330967         114119         319442
   1144.00000000         -59420         -72467        -504374         441130
   1148.00000000        -375965         -44195        1136452        -526414
   1152.00000000         387037        -337507         590692        -925389
   1156.00000000        -123920         -79902         -50617        -466937
   1160.00000000        -335815         -80099        -186218        -143431
   1164.00000000          84565        1017131         -35760         -81322
   1168.00000000         722954         332666         -63642         451280
   1172.00000000          31148        -666240         181976         -83293
   1176.00000000         582739         -70607           5280        -363312
   1180.00000000         171540         860993          88677         817580
   1184.00000000        -244080        -631301        -282492         250073
   1188.00000000         755809         256651        -317547          43800
   1192.00000000         278456         481069        -599178         299136
   1196.00000000       -1340487        -176657        -757479        -644055
   1200.00000000           2870         425889       -1105050        -535472
   1204.00000000        -778923        -954807       -1068599         413174
   1208.00000000         464888          19809         161193        -713305
   1212.00000000         283920         353524         198469         117945
   1216.00000000          -3315        -527409        -118839       -1230998
   1220.00000000         329889         140160        -489941         -74396
   1224.00000000        -332070         -94553        -232912         300748
   1228.00000000        1025432        -378395          79358         313998
   1232.00000000         -20817        -748432        -630546         321422
   1236.00000000          95343        -388806         744304        -185029
   1240.00000000        -727609         109940        -304957        -639196
   1244.00000000        -238529         453696         227982       -1038110
   1248.00000000        -422086        -240045        -140085        -244594
   1252.00000000        -407633         -82212         227759        -116274
   1256.00000000         778701        -265713         257219         206600
   1260.00000000        -296208         339169        -737128        -248176
   1264.00000000         143116         345517         158314        -674931
   1268.00000000        -593689         973305         184838        -447954
   1272.00000000         293464         427883          51631        -472377
   1276.00000000         730367        -122675         -14009         127051
   1280.00000000          84647       -1512629         611650          20028
   1284.00000000        -185291         794998         148215        -535127
   1288.00000000        1507092        -369292         150105       -1212358
   1292.00000000         -44590        -170929         686592        -165029
   1296.00000000         333165         314027         430729        -269635
   1300.00000000         -74114         -12377        -687904         -17137
   1304.00000000         835328         397209          39771         129590
   1308.00000000         176380        -259535         826651         207958
   1312.00000000        -317863         587828        -160857        -629008
   1316.00000000        -662110          -5823         715112         309916
   1320.00000000          33685        -494661         785657         271139
   1324.00000000          26589        -114387         487031          42955
   1328.00000000         292340           -940        -127517         -29379
   1332.00000000        -419451         -96587        -147563        -647519
   1336.00000000         812229        -292434         281059         -76592
   1340.00000000         380743        -617699        -822699         419094
   1344.00000000        -143727        -258820         766583         195730
   1348.00000000         202540         267217         589176        -228290
   1352.00000000         -35426         370482         -48693         461301
   1356.00000000        -149891         260275           9802         234634
   1360.00000000         221548         -21876        -453318        -233168
   1364.00000000          36472        -337852        -895227          58491
   1368.00000000          59130         -26503         373640        -175245
   1372.00000000         215381        -272127       -1066584        -506006
   1376.00000000         147825        -263161        -823637         870770
   1380.00000000         776213         186322        -179148         914097
   1384.00000000        -268252        -313026         617132        -582425
   1388.00000000         620534         -17494        -844911          17882
   1392.00000000        -465876        -118157         249107        -418163
   1396.00000000        -123901         416965        -109037         252432
   1400.00000000         448888        -363828         277643        -632737
   1404.00000000        -886551         -83655         106285         217615
   1408.00000000          42253        -247365         -72216         -26144
   1412.00000000        -195486        -659474        -101972         103888
   1416.00000000        -668556        -470665        -383150        -157098
   1420.00000000        -426874         697175         231668         110513
   1424.00000000          68916         528990         -67997         289370
   1428.00000000        -326404        -553731        -128722         -99588
   1432.00000000        -125887         794719         -53959         353852
   1436.00000000          32852        -172731         140515        -345129
   1440.00000000        -726355         -74871         324756         384235
   1444.00000000         109787         -24005        -215942          69617
   1448.00000000        -254368         264973        -596294         -94947
   1452.00000000         577657         511459         422626        -231715
   1456.00000000         804759        -300444         593587        -210078
   1460.00000000        -736885         123431         454363         374954
   1464.00000000         -36181         290181         -52945         497790
   1468.00000000         729189          45974        -541225        -331203
   1472.00000000         157983         207885         666507         -69372
   1476.00000000         -95948         664048        -118842        -786124
   1480.00000000        -491273        -268208        -125554        -327594
   1484.00000000         609984         660444         -29868         352644
   1488.00000000         -97811         471688        -268905          46262
   1492.00000000        -673961         414125         476099         508487
   1496.00000000         374279        -219328          11331        -456282
   1500.00000000         -14787        -591309          77870        -136096
   1504.00000000        -348070          33612         369392        -176412
   1508.00000000          50809        -723287        -392060         126762
   1512.00000000          45001         434263         853030         745386
   1516.00000000         479041         427096        -273617        -439743
   1520.00000000        -496057        -215940        -284262         461926
   1524.00000000         -60593         567533          52571         226077
   1528.00000000         -69637         680538        -416917         114044
   1532.00000000        -188164        -584130        -615017         757154
   1536.00000000         286433          16878          -4810        -228798
   1540.00000000        -281689        -700649         -82280        -221291
   1544.00000000         189026         381192         352127         496187
   1548.00000000        -547091         272197         154039         -42735
   1552.00000000          42520         112333         -17660         131458
   1556.00000000        -345418         492922         265477        -192369
   1560.00000000         301725        -708396        -101314        -318680
   1564.00000000         -75568        -169398        -205870        -350938
   1568.00000000        -220954          -9052         108972        -417832
   1572.00000000        -433700         140285          15948         239947
   1576.00000000         271712         175545         256295         518799
   1580.00000000         149262         189290        -239518        -650732
   1584.00000000        -242267         551066         -43953         296567
   1588.00000000         134441        -528940         -22896        -304240
   1592.00000000        -325644        -383840         199695         381118
   1596.00000000          32342        -102862         -83715         281269
   1600.00000000         -33471         141107         404763        -442388
   1604.00000000        -235624          96972         568889          61341
   1608.00000000         234438        -228972        -336376           4283
   1612.00000000        -348119        -226595          68334        -409098
   1616.00000000         335357          53929         262675         455660
   1620.00000000         498579         298945         -28804         304977
   1624.00000000        -597415        -294248         145144         471313
   1628.00000000          16597         306860         103622          69276
   1632.00000000         242408         -61351         234770          -2516
   1636.00000000         101687         150619         -30160         376902
   1640.00000000         201397        -317027        -174629         192255
   1644.00000000        -330958        -435749         106382         181442
   1648.00000000          92813         158366         318419         123338
   1652.00000000         -72741         -10021         -91585        -117783
   1656.00000000          75469        -279595        -728713        -119641
   1660.00000000         485458         282579         -40832         228255
   1664.00000000         277167         271769          54554         909913
   1668.00000000        -256810          93085        -167194         281964
   1672.00000000         227954         206691          23015        -467174
   1676.00000000        -177144        -458367          46747          78388
   1680.00000000         -97989         -84409          78147        -571753
   1684.00000000        -286249         -91459         251377         238813
   1688.00000000         -38895         612830         391668        -303921
   1692.00000000         106025        -215881        -585389          15021
   1696.00000000        -195945         216677         108988         535143
   1700.00000000          -9474         175390        -124780         574211
   1704.00000000         274586           5328         463936        -286433
   1708.00000000        -130841         111508         207862         185880
   1712.00000000         -92996         118391        -298620         138294
   1716.00000000         244115        -233779         -18496         465147
   1720.00000000         118608          39636        -363034         349374
   1724.00000000         270743          31001        -128981         337984
   1728.00000000          37392        -635128         214255         314261
   1732.00000000         126627         335943         462422        -201661
   1736.00000000         -82315        -375317        -292857         238667
   1740.00000000         639534          63945          70029         519819
   1744.00000000         124593          84530         296147         296296
   1748.00000000          61859          98376         488857        -293694
   1752.00000000         552489         213943        -446380         468315
   1756.00000000         295279        -387688         -44925         -17282
   1760.00000000         170970         373405         119183         210169
   1764.00000000         -16358         -96630         192560        -548985
   1768.00000000         154727         477083          -5260        -236384
   1772.00000000         472849         245034        -156587         191347
   1776.00000000         371572         -68789         122089         145563
   1780.00000000         313876         115208        -437659          -7862
   1784.00000000         145962         294737         320604         -58134
   1788.00000000         223618         329669         -24173        -152959
   1792.00000000         104376        -196733         179966          35963
   1796.00000000        -376136        -126899        -193892         194260
   1800.00000000         -35478         119080           6749           -103
   1804.00000000          69263         187435        -555827        -215826
   1808.00000000         150125         256407         -44269         221039
   1812.00000000         228750         129751         -13922         432969
   1816.00000000         214004        -267719        -110963         -73136
   1820.00000000         197104        -112741         212410         204893
   1824.00000000         615185          30954          48206         342792
   1828.00000000         274866           7020        -175713         316409
   1832.00000000          -2298          45599         102642           6608
   1836.00000000         266429        -228231          61842         194289
   1840.00000000          59204         291035          73666         194463
   1844.00000000         372782        -365776         333148         606978
   1848.00000000         -27047          70662         -33548        -210034
   1852.00000000         444943         471102        -136428         -42558
   1856.00000000           5063        -126486        -327603         292937
   1860.00000000          41854         151047        -303863        -169161
   1864.00000000         213443         180657           5832        -112190
   1868.00000000         -50330         -16494        -167233         514071
   1872.00000000         299957         150609          38968        -150849
   1876.00000000        -334708        -172770        -310521         294615
   1880.00000000         -48872         -48846          76812         -99177
   1884.00000000         -37018         171143          43206          80483
   1888.00000000         114727         -79490         103941         196516
   1892.00000000          -5915         300212         190329         558433
   1896.00000000        -170564         288888         353395        -202322
   1900.00000000        -534441        -349609         -87785         295543
   1904.00000000         151312         -45784        -148848         408731
   1908.00000000         -18303         -47503          20092        -474610
   1912.00000000        -233462         417023           2102        -115071
   1916.00000000         594477         -44385          -3969        -277065
   1920.00000000         224317         104745        -152352         433962
   1924.00000000         339308          55030         789435         279295
   1928.00000000        -261950         378079         183969        -261843
   1932.00000000          66159         -20522        -265342         346355
   1936.00000000        -118704         385551        -119866        -387502
   1940.00000000         -12142          22617           5800         204050
   1944.00000000        -188577         148252          42568         317217
   1948.00000000          44168          65610        -253872        -129857
   1952.00000000          21605         148187          53494         140482
   1956.00000000        -290474         143984        -174922          24893
   1960.00000000         135847        -211136         243547         -78378
   1964.00000000        -106247        -128383         312984         115873
   1968.00000000         -37946        -448496         -35886         103309
   1972.00000000         544391        -337979        -100632        -158148
   1976.00000000         -55403        -316980        -210124         -42009
   1980.00000000         150690         -60103          40784         149350
   1984.00000000         101471         238622         339592          -8611
   1988.00000000         391567          23516         -16300         -64026
   1992.00000000          44734        -348267          66806        -113586
   1996.00000000        -281143          77356         205527         159106
   2000.00000000         138942          53249        -240631        -278029
   2004.00000000         187353         -50161          61620         232476
   2008.00000000         173118        -428157          -7764         274582
   2012.00000000         -39748         218623          83545         113371
   2016.00000000          -5192         228247         281465         118824
   2020.00000000          -8976        -294942         -95320         359302
   2024.00000000         -61030          79495         175892        -100283
   2028.00000000          76486         -28423         332342        -241249
   2032.00000000        -308626        -174864         406618          42748
   2036.00000000          67332         414860        -117698         383941
   2040.00000000         344778        -185007          35283           9107
   2044.00000000         110061          29410         214051         -19851
   2048.00000000        -289150          31370         123699         206802
   2052.00000000        -152838         -38784          72943         -29301
   2056.00000000        -106881           9475        -387588         351894
   2060.00000000          76767          73064        -280472          28647
   2064.00000000         254837         222743         257344          -2679
   2068.00000000         -52286        -197976         -52768         186620
   2072.00000000          58513        -319229          83656          29968
   2076.00000000         -84637         -38469          -4666          98319
   2080.00000000         164612         -55357         -94744          56254
   2084.00000000         -60403         134650          13107         144551
   2088.00000000         387953        -116138          65313          94892
   2092.00000000          47463         120590         213201        -225704
   2096.00000000          77375         -60140        -134091          51777
   2100.00000000          47720         101896        -119700        -140628
   2104.00000000        -140712        -171189         277763          20820
   2108.00000000         143406           1540         -60297          58059
   2112.00000000         -80642         209993         265197         -61392
   2116.00000000         173042         220995         -62339        -251427
   2120.00000000        -105214         109456         -19791          13648
   2124.00000000          63070        -219854        -115506          24650
   2128.00000000          14175         212396        -272706         200932
   2132.00000000         135214         -43424          19795         266438
   2136.00000000         -16745         113053        -148228          -1309
   2140.00000000         242704         -91769         -87176          26811
   2144.00000000         -77015        -185346         475085         -71317
   2148.00000000          11519         218855          58753         159531
   2152.00000000        -104648           8700         115947          54980
   2156.00000000          47760          29700         -63542          18759
   2160.00000000        -215573        -165948         177299         -55717
   2164.00000000         -33636         267176        -244952        -126000
   2168.00000000          43177         -40710        -300991         -30651
   2172.00000000          -4421          96857         174016         -40460
   2176.00000000          40589        -121998         178834        -110763
   2180.00000000        -187505         -52212         237829         -19407
   2184.00000000        -243536        -156580         311628          -9490
   2188.00000000         -98023          56851         127525        -123608
   2192.00000000         145708         187396          29455          54934
   2196.00000000         -44284        -106423         295095         -64137
   2200.00000000         143926         222675           2242         164368
   2204.00000000        -140578        -218786        -234652         -34357
   2208.00000000         240270        -323786        -147600          40385
   2212.00000000        -203465          -8110         351794          57827
   2216.00000000           7822         209741         -56538         -59598
   2220.00000000           9582         215584         218414         115878
   2224.00000000          63862         -58225         108280        -107380
   2228.00000000        -211711          58255        -120814          22650
   2232.00000000         -54409           6242          52885          87068
   2236.00000000          12973           8895        -167000         -87704
   2240.00000000         141709            475        -201611          -6919
   2244.00000000          34353          46658          12180         103566
   2248.00000000         332868         -26725         172460          50012
   2252.00000000         265216          44241         201864          -9879
   2256.00000000         157246         237791         -61493         -26808
   2260.00000000          -8301          72595         -21968         101850
   2264.00000000        -210170           5884          19516          24743
   2268.00000000         163308        -306200         -48883          46182
   2272.00000000        -181629         -26942           7212          90496
   2276.00000000         170145         -57718        -115509          32790
   2280.00000000          64819         -50519         112318          17366
   2284.00000000        -213156         235959         111938        -127397
   2288.00000000         -68461          66387          43704        -140886
   2292.00000000          -5492         177769         185608          -8795
   2296.00000000        -204704          36415          27573         216387
   2300.00000000         -56886           1786         279878         231818
   2304.00000000          -2866         131738          81502         245150
   2308.00000000         -13257         -98602        -136662          40395
   2312.00000000        -153287        -386850        -102038         -78742
   2316.00000000          39994          99613         -38847         -98476
   2320.00000000         -11753          91173         -23775        -107487
   2324.00000000        -113973        -316064         -49706         -43618
   2328.00000000         -80302         -82462          28070         -16756
   2332.00000000          -4197        -284758        -125876         -66557
   2336.00000000          -6246          51047        -123461        -133112
   2340.00000000          98707         205806        -121879          35797
   2344.00000000         198647         101351         135525         108873
   2348.00000000         -26677          99259         100382          73149
   2352.00000000         108765          13513         -85097         -95619
   2356.00000000          55717         186116          19762        -166457
   2360.00000000         -48074        -131382        -143407         -46964
   2364.00000000         185812         -93322         121349          88477
   2368.00000000         109573         -31314         129098         146625
   2372.00000000         156189         -13307         120240          50656
   2376.00000000        -139876          30429         -43445          56765
   2380.00000000          28553         -15629         303084          12549
   2384.00000000         -88821          48589        -250117        -102507
   2388.00000000          72927        -205950         -50780          25846
   2392.00000000        -165739         -67251          66660           7218
   2396.00000000         -97944         -94560         -88859        -136064
   2400.00000000        -143020           4244          40024          86978
   2404.00000000          77368         -73326        -181365           -877
   2408.00000000          77704         142486        -151828        -233087
   2412.00000000        -217466          88832          16853          56619
   2416.00000000         -74692          48924        -105643        -166872
   2420.00000000         -87676        -174136        -104186        -231014
   2424.00000000          58325         124701          85869           8979
   2428.00000000          76238          35360         124695         -98880
   2432.00000000         -78287         140923        -138994          10552
   2436.00000000          56248         -42225         106334         -60422
   2440.00000000         -29984         -43680        -246113          29929
   2444.00000000         -83407          69536         154797         -42296
   2448.00000000        -124169          30000          44866          45459
   2452.00000000        -192398         -13848          17810          42248
   2456.00000000        -170724         135742         -38589          29562
   2460.00000000         -20894         131015        -102100          66549
   2464.00000000          32800        -102240          79863          73096
   2468.00000000         -35317          22177         100781        -113455
   2472.00000000          87687         -64465        -120820         -18493
   2476.00000000          96619          65601         -68983        -138595
   2480.00000000        -137434        -133743          51890         -85276
   2484.00000000         -45774          49949        -149349         151415
   2488.00000000         126487         -53559          66268         -85933
   2492.00000000         -21659         -10765         111327         -37999
   2496.00000000         -71175         -87600        -141932        -252984
   2500.00000000          93135         -38890         128724         -28562
   2504.00000000          16004         -12650           9193         119386
   2508.00000000          46044         -53545          36180         -16162
   2512.00000000          27980           6208           2241          58603
   2516.00000000         -77926        -314058          61382         -33751
   2520.00000000         -20694         -63395          89037          57426
   2524.00000000         -66757        -173904            706         -10146
   2528.00000000          42118        -213894         -37757        -123081
   2532.00000000         -71764          42029         -40560          20050
   2536.00000000           -393         -22424         -71898          49104
   2540.00000000        -164616           1196           6504         -21128
   2544.00000000         -90846         -40977        -217677          74982
   2548.00000000        -137328        -102711         128868         -91990
   2552.00000000          74827        -194466        -200565         129819
   2556.00000000         178664        -223677         -83474        -107907
   2560.00000000          89834        -111669         -67785         -42167
   2564.00000000          -9209         -50135         201779           5473
   2568.00000000          67452          84990         -46017          28457
   2572.00000000        -126093         -76184         -31636          -9920
   2576.00000000         109915         110936         -67558           9667
   2580.00000000         -40829         -17520         -17062        -145850
   2584.00000000          31636         148411          58701           9015
   2588.00000000          50686          52590         -30002         -75253
   2592.00000000        -191455          38383         125838         -54260
   2596.00000000        -141230         128799          68965          91413
   2600.00000000        -229634          31651        -136572         -92395
   2604.00000000         -97190           5823        -182560          87492
   2608.00000000          34771         105249          43488          -6435
   2612.00000000         136579          82964          76870         -61199
   2616.00000000          58630          96676        -103746        -144041
   2620.00000000        -168895          42848          12390        -107685
   2624.00000000        -104803         178140         -86203         -76066
   2628.00000000          66197          73141        -199618          21215
   2632.00000000         -43605         -73034           2885         118607
   2636.00000000         -29356           6918          57640          45745
   2640.00000000         -93167         -82209        -173905         -73325
   2644.00000000          -3862          93844        -116407         -24879
   2648.00000000         -84721         -46261         -17674        -171820
   2652.00000000        -176106         -39351        -127820         -98379
   2656.00000000         -53333         -21390         195011          34770
   2660.00000000        -144544        -170087        -154347        -151945
   2664.00000000         129010          39115        -118639         -65185
   2668.00000000         -15994          44445         -19044        -132332
   2672.00000000         -87655          50737           4210          49093
   2676.00000000          98981          72809        -128338          -3536
   2680.00000000          31026           3160          36738        -151515
   2684.00000000          42672        -165369         -56300        -101037
   2688.00000000         -82334          60336         -12174        -124719
   2692.00000000         -55071          71801          45482         -18442
   2696.00000000         -37386          67578           2848         -60261
   2700.00000000           6558         -44078          52283          -9909
   2704.00000000        -141441           5205         -55604         -49420
   2708.00000000         -88387         -37827         -14266          -6315
   2712.00000000        -120449           8242          12339        -121591
   2716.00000000         161586         -30057          80664           3978
   2720.00000000          96813          34648          56184           6148
   2724.00000000         111844           4697         -73123          22489
   2728.00000000         -24574         -38515         -53555         -56213
   2732.00000000          15910        -201570          41493         -34825
   2736.00000000        -107922        -101438          24850          10405
   2740.00000000        -115660          78266         -61539         107836
   2744.00000000          53604         -16627          11381         -25429
   2748.00000000         -63677          73757         -57103         -36696
   2752.00000000          47692         137294         -61947         -32630
   2756.00000000          -3644         -35666        -169138          10791
   2760.00000000          52157         -44715          22678         -21123
   2764.00000000         -19894         -26665         -17456         -23023
   2768.00000000         -76854         -39845        -180306         -57517
   2772.00000000         -56707         -64796        -145413          42807
   2776.00000000         -52585          41556         -42526          20746
   2780.00000000        -110585           8240          27005         -33993
   2784.00000000          33287          27250          62259        -132826
   2788.00000000          95752          27765          15697         -57038
   2792.00000000           3003          84236          46175          54329
   2796.00000000        -127369         -33048         -30143          86509
   2800.00000000         -42509            162         -43864        -135035
   2804.00000000          38577         -97641         -34944        -108580
   2808.00000000           1282          83192         -31209         -78297
   2812.00000000        -151476         -44318          29241         -62669
   2816.00000000         -18724          74102         -23643         -74718
   2820.00000000         -22036        -100793         -97459          35827
   2824.00000000         -95970           4687         -57768        -105035
   2828.00000000          29436         -71873          16135          37298
   2832.00000000          32518          88528         -66375        -119683
   2836.00000000          28540         103264         -66265          13421
   2840.00000000         -71454          82423         -55027          37495
   2844.00000000        -148183         -79049          39545         -72953
   2848.00000000         -21641          17480         -38318         -53496
   2852.00000000           5932          -2771          -8080          99567
   2856.00000000         -34569         -53125          72697         -30419
   2860.00000000         -95050         -29235         -45261         184590
   2864.00000000         109362          16816          94017          81388
   2868.00000000         -44365         118782          23939          55847
   2872.00000000         -81507         -36651         -60642          44668
   2876.00000000         -48430         -66632         -22239         -75707
   2880.00000000          64755         -19654         -40529          -1493
   2884.00000000         -53392           5917         -39691          -3451
   2888.00000000          23378        -130102        -102200         -12575
   2892.00000000         -43243         -82086        -116378          -8628
   2896.00000000         -51089         -17418           3353         -33809
   2900.00000000          65134          -3920          25039          -2425
   2904.00000000         -90397           3322         -25398        -130326
   2908.00000000          69706           9291          28029         -62232
   2912.00000000          57093          56643          45058            835
   2916.00000000         -14624         -87469          66185          41490
   2920.00000000         -22994         -56352          37358          -4355
   2924.00000000         -16072        -107470          16158         -20018
   2928.00000000          35935         -70554         -31425           4962
   2932.00000000           1549         -23486          35749         -38018
   2936.00000000         -78155          50289         -14821         -90692
   2940.00000000          17508          -9867        -106564         -97456
   2944.00000000          14977          39056          22107         -44718
   2948.00000000           6685          14559           2991         -15503
   2952.00000000         -14947          29421         -19513         -20273
   2956.00000000         -81117         -35945         -26476         -45696
   2960.00000000          -9245          15350         -12065          56621
   2964.00000000          69035          67116         -74171          48574
   2968.00000000         -67377         -88610          33230         -15219
   2972.00000000         -36754         -14920         -24102          36055
   2976.00000000         -82379         -69500          13075           1347
   2980.00000000          52215          39323         -81674         -39926
   2984.00000000          44459            687          52911         -73487
   2988.00000000         -61207          14212          -3246         -34802
   2992.00000000         -78539        -110019         -10107         -19161
   2996.00000000         -23697         150994          36304         -48179
   3000.00000000         -70025         -38915         -47948          88938
   3004.00000000          35754          24510         -85193          36822
   3008.00000000        -101460            690          66566         -17789
   3012.00000000         -10392          28072         -64991          16336
   3016.00000000         -73614         -35577         -38152          43403
   3020.00000000           4209          -5933          75891          10565
   3024.00000000         -52587        -161626         -55885         -66944
   3028.00000000          23966         -27834          -8506           -362
   3032.00000000         -47119          68438          -6220         -35297
   3036.00000000         -78183          20664          10881          40207
   3040.00000000         -22141          30429          35849         -13426
   3044.00000000         -65788         -75002         -29086         -10146
   3048.00000000         -69645          25056         -45809          27852
   3052.00000000            804            396         -98999          56876
   3056.00000000         -52628         -89725           6215         -80795
   3060.00000000         -16277           1885           -123        -130293
   3064.00000000          38594         122969         -10435          -2786
   3068.00000000         -21757          -4932         -23851          11039
   3072.00000000          76789          94237            925         -44960
   3076.00000000         -13821          52545         -26557           9411
   3080.00000000         -23017         -23569          38904         -24378
   3084.00000000         -18829          50297         -36164         -68236
   3088.00000000          45850        -127172         -37229          23817
   3092.00000000         -96644          47229          45128         -40866
   3096.00000000         -86688         -66899         -48340          71285
   3100.00000000          -2844          25780         -81241          -2773
   3104.00000000          25539         -67390          30596         -61994
   3108.00000000         -18587          38483           -912         -54260
   3112.00000000          16370          49755          25873         -32188
   3116.00000000          11567          62823          54345          43581
   3120.00000000          26050         -33144         -43160         -49327
   3124.00000000         -13014          44999         -25073           3122
   3128.00000000         -60233         -48234          -3389            716
   3132.00000000        -153123          66749         -14472         -73913
   3136.00000000          66177         -11320         -10419         -30370
   3140.00000000         -61228         -80992         -65539          44044
   3144.00000000         -35609         -64793          21265         -36013
   3148.00000000          31561         -24674          -7465          34262
   3152.00000000         -26844           2366         -82550          14274
   3156.00000000         -75570         -60928         -46246         -65290
   3160.00000000          -6831         -36936          -5157         -86318
   3164.00000000         -16550          25261         -36821         -26245
   3168.00000000          56871         -13830          -5765          24061
   3172.00000000         -58572         -39210         -29828            515
   3176.00000000          -6867          54685         -26840         -40120
   3180.00000000          32051         -11673         -21801          72598
   3184.00000000          64370         -46440          81073           6776
   3188.00000000          16222         -26120         -41808         -74655
   3192.00000000          49754         -22064          17516         -21830
   3196.00000000          -7305         -21758         -17011         -43819
   3200.00000000         -48595         -51655          -7680          54766
   3204.00000000          68948         -33797          42423           3719
   3208.00000000           7140         -21155          22934          50824
   3212.00000000         -40059        -106874         -25478           -352
   3216.00000000         -35857          22540         -23115         -56786
   3220.00000000         -15492          15006         -23157         -26251
   3224.00000000         -53869         -38129          47703          60732
   3228.00000000          30448           3076         -47984         -49679
   3232.00000000         -20825          16464         -44394         -17503
   3236.00000000           6723          36857          41675          41091
   3240.00000000          65958          -1411          33577          18972
   3244.00000000         -34862         -11472         -26575         -22881
   3248.00000000         -41038          58765          -8815          20117
   3252.00000000         -46646         -58863          -3528          34178
   3256.00000000          39312           8624         -77602         -28481
   3260.00000000         -46345          33013          33643            523
   3264.00000000           -380         -43058          29767            520
   3268.00000000          44738          28995          -2981          23445
   3272.00000000            925          -2879           4223         -35936
   3276.00000000          63221         -28378          43759           1770
   3280.00000000             90          18095         -17981           7641
   3284.00000000         -48271         -62651         -50961         -20410
   3288.00000000           9707          22056          37159           8107
   3292.00000000           3127           8173          -9129           7530
   3296.00000000          79787          18656         -34892           1570
   3300.00000000           7405         -48045          21073            312
   3304.00000000         -50943          48449         -33342          41532
   3308.00000000         -44225         -46319           2354          -7270
   3312.00000000         -64836          -1327          -4925          12721
   3316.00000000           3344         -23913         -31302          17177
   3320.00000000          -4772          49260          13913          11003
   3324.00000000         -24777          50331          -7403          27612
   3328.00000000         -10396         -33792           8995          12912
   3332.00000000          12404         -10554           3842          13370
   3336.00000000         -17054         -34504           3585         -79966
   3340.00000000          19488         -36603          -2560           6892
   3344.00000000         -55023          12803         -67498          10216
   3348.00000000          26394         -27003           4919          46887
   3352.00000000         -33972         -31352          29508          10087
   3356.00000000         -51235          -4582          -9457         -14264
   3360.00000000         -49732         -27037         -46199         -62791
   3364.00000000         -10400          12049          10373         -18752
   3368.00000000         -28364         -71866           5292          33054
   3372.00000000           6185         -18957         -14171          19620
   3376.00000000             70         -53265          36473          35308
   3380.00000000          -5176         -26697          19455          10792
   3384.00000000          17340          -4837           7331           6707
   3388.00000000         -15892         -59929          -7333         -59073
   3392.00000000          -7553         -25302           1431          15453
   3396.00000000         -33806         -34412         -19323         -27189
   3400.00000000         -37369          -3901          -1437          46119
   3404.00000000          51386         -26541         -39385          19187
   3408.00000000         -16947           5407         -18565          27472
   3412.00000000         -53595         -21277          -9638          30389
   3416.00000000          31391           8072           1256         -21686
   3420.00000000          35501         -24470          26086          -4949
   3424.00000000          17436          -5396          34232          40834
   3428.00000000          -1637           -603         -37696         -22505
   3432.00000000         -38699           8754         -34840           -452
   3436.00000000          -6012         -25311          -9210          10968
   3440.00000000           2383         -35058          -2465         -14291
   3444.00000000          50177         -10866         -11888          -1499
   3448.00000000         -32632         -17984          18686           2642
   3452.00000000          -7668          27259           8214           5095
   3456.00000000           8831          17033          -2173          18885
   3460.00000000          11920          17424          44389         -16684
   3464.00000000          18745          14975         -23716         -25882
   3468.00000000          -4801           4419         -48018         -19209
   3472.00000000           9673          14750         -27422         -19105
   3476.00000000         -29930          53601         -52040           9692
   3480.00000000         -12019           5807          11209         -55721
   3484.00000000         -18180           7451         -23114          32128
   3488.00000000         -35370           3623           7608          -2146
   3492.00000000         -23093           2747         -16759         -17959
   3496.00000000          13541          24132           -222          -6967
   3500.00000000          51394         -11020          31494          -6310
   3504.00000000           7251          10546         -25972         -43352
   3508.00000000         -20297          47685          35302           4319
   3512.00000000          -7505         -39129         -28940          28186
   3516.00000000          16740          -8828          30529         -18802
   3520.00000000         -20889            -13         -13024           7867
   3524.00000000          19881           8852         -20759          -5423
   3528.00000000           5489          84279         -27929          31971
   3532.00000000           -122         -18703            -68          20496
   3536.00000000           9580         -30426          15468          62103
   3540.00000000         -22342          11916         -19395         -19419
   3544.00000000         -30381          17225           9682           5531
   3548.00000000         -15575          33279          -9464         -23484
   3552.00000000          21843         -13483           8525           8929
   3556.00000000         -34873          -1259           7731         -46001
   3560.00000000          14263          13698          17313          -4435
   3564.00000000          25473         -17036         -16857         -38502
   3568.00000000           3563          22546           3477         -15829
   3572.00000000             29           7408          10833         -16791
   3576.00000000           -737          23047         -29460          -6767
   3580.00000000         -24020         -14672          17442         -23938
   3584.00000000          -6471          21948         -51584         -17112
   3588.00000000          21401         -39238          16589          42051
   3592.00000000          34496         -11326          19181           1074
   3596.00000000          18090         -13608         -49850          -2551
   3600.00000000           5417         -25290          10280          21147
   3604.00000000          27129         -10664          32045           8705
   3608.00000000         -31024         -32195          12519            835
   3612.00000000          -3945         -29819         -13958          30290
   3616.00000000          11333         -18330           7777          27726
   3620.00000000          29466         -17600         -30213         -15183
   3624.00000000           9313          -7242          21719         -29480
   3628.00000000          13383         -19410          46416         -21024
   3632.00000000          43292          13128         -26414          20142
   3636.00000000         -27617           2636          28993          -2595
   3640.00000000         -39350          -3891         -13324           1535
   3644.00000000           6913         -16901         -16751          -6399
   3648.00000000          54547           8596           5842          30061
   3652.00000000          -6939          26960          -5658           7562
   3656.00000000          48046          13457         -15806          31308
   3660.00000000           3774           6308          29859         -21116
   3664.00000000          -5149         -22393          22078          10246
   3668.00000000           7756          -1816           6553          25198
   3672.00000000         -55167         -14897         -46529           7770
   3676.00000000         -29278           7786          32351          30145
   3680.00000000          -8596         -63431          30152          22422
   3684.00000000          30854          -2918         -16543         -48085
   3688.00000000          17837          34762          21531         -18838
   3692.00000000         -12799          16887          -7367            679
   3696.00000000         -40353         -14036           2421           8156
   3700.00000000           -427         -16709           8309           2929
   3704.00000000           9282          17143          32294         -15945
   3708.00000000          -6760         -16272           8902         -26597
   3712.00000000         -14325           2495          25246            959
   3716.00000000          25421          21268          11655         -13255
   3720.00000000          32474          11183           3445           5097
   3724.00000000          12817           6011         -15701           7900
   3728.00000000         -21959           4057           3326          19570
   3732.00000000          22525          22954         -56150          -1808
   3736.00000000         -11560           -111           2130          -2059
   3740.00000000           5130          14600         -12687           4476
   3744.00000000         -21344          27082         -14259           9857
   3748.00000000         -19532         -47955         -22872           2216
   3752.00000000           9182          27597          18427          27232
   3756.00000000         -18534          -6595           1734         -48895
   3760.00000000          12176          10775         -15901         -11473
   3764.00000000            824         -27071          23774          40213
   3768.00000000           7072           3225          -7833          10370
   3772.00000000          52958          15459          10530         -14491
   3776.00000000           2882             71           4385         -20562
   3780.00000000         -10748          -7441            936           7227
   3784.00000000          25808          17499         -21048          31241
   3788.00000000           4347           -351            795           5156
   3792.00000000          18463         -23275          10464         -16546
   3796.00000000         -13140         -13693           3621          19965
   3800.00000000          10730          20789          16268          -9845
   3804.00000000          26013           5612          14445         -37401
   3808.00000000         -18026          31203          24197         -12204
   3812.00000000           2523           3343          23649         -22875
   3816.00000000          20635         -14480         -39799          -7120
   3820.00000000          -5366          28751         -27168           6018
   3824.00000000          10374          30452          18072           3023
   3828.00000000           2053           7024         -21983          -4528
   3832.00000000         -11389            386         -23560         -11238
   3836.00000000         -14665          32722         -28863         -34405
   3840.00000000           4505           4279          19351          -5071
   3844.00000000          -4104         -23789         -15861          14569
   3848.00000000          -3021         -10953           8994           -695
   3852.00000000           5100          -7125         -16460         -41240
   3856.00000000          24264           4058          20389          -8281
   3860.00000000         -26398          18137          14730           8205
   3864.00000000         -16804           7837         -10072           4360
   3868.00000000          16631          19624          -5463           8867
   3872.00000000          -1619           2210          22225          10152
   3876.00000000          10703           5421          16911           5584
   3880.00000000          -9504          27693         -16598           3658
   3884.00000000          -5778           6742         -12536           4729
   3888.00000000          15166         -10487           1250           6979
   3892.00000000          -9708         -27627          22322         -11963
   3896.00000000           6543          44256           8693          23540
   3900.00000000         -17084           2223          25850          -1411
   3904.00000000          -7490         -22056          22799          11763
   3908.00000000           -306           5274          25064          17401
   3912.00000000           9391          13411          10364         -39332
   3916.00000000          35848           9730          29196          17392
   3920.00000000          -8529         -14168          -3674            667
   3924.00000000          13339          -3128         -18136         -32774
   3928.00000000          34193          -4410         -30296          10942
   3932.00000000          30070          -4645         -11405          15429
   3936.00000000         -10248          13139         -11349            889
   3940.00000000         -11305          -7950          26999           5844
   3944.00000000          -2675          21789           2333          -3350
   3948.00000000          -5513         -24646          -1604          14198
   3952.00000000          -3799          15812           3386          -9237
   3956.00000000           1940          12534          10507         -19693
   3960.00000000          -7752            788           8053           1352
   3964.00000000          -6532          24438           2709          31770
   3968.00000000           -185         -13041         -14480          14147
   3972.00000000         -14080          14090            107          12007
   3976.00000000          22183          -3703          22870          25365
   3980.00000000           9694         -10561         -19974           8976
   3984.00000000          -5516          -7209          15368          13798
   3988.00000000          -3339           6620          -5609           1633
   3992.00000000          25956          -8055          -2403           3400
   3996.00000000         -11138          -7442          32325          34893
   4000.00000000          -6240          -6390           6001         -18718
   4004.00000000           7267          -3267           8895          20993
   4008.00000000          18852          -3658          -8907         -10264
   4012.00000000          -3603         -12520           9330          16563
   4016.00000000          25764           1900          -8127          22925
   4020.00000000          -6739          14855          14416          -6035
   4024.00000000            794         -11128         -26000           5847
   4028.00000000           9855         -12816         -23249            233
   4032.00000000          14475         -18551          17487          12054
   4036.00000000          20467          12947           9891          -9937
   4040.00000000          -6165          -1303           6915          15362
   4044.00000000          10242          -9720          -5904          16071
   4048.00000000          -1920           8188          37664         -13344
   4052.00000000          13373           5902         -15615         -11017
   4056.00000000          -5191          15469           6553          10599
   4060.00000000          26153           1575           1138          -2826
   4064.00000000          20624           -232          -3310          10010
   4068.00000000          20321          10812          12376          -1030
   4072.00000000           3479          18506          -4706          -7830
   4076.00000000           5413         -10174           8095          14871
   4080.00000000            919          18388          30719          -7656
   4084.00000000           -886           8311           4653           7253
   4088.00000000          -3096          10313          -1528           7951
   4092.00000000          -7006           4117          -1666           4913
   4096.00000000          12061         -11731         -14725          -7183
   4100.00000000          -5760           4292           1645           4903
   4104.00000000           2419           7342           4932         -14460
   4108.00000000            643         -14650          -1176           1759
   4112.00000000          -5491           3524          -7646          -5359
   4116.00000000          20684          17741          11854          -7321
   4120.00000000          -8635          15854          -7372          10202
   4124.00000000           2192          -5809          -4055           5901
   4128.00000000           -799          -5670          -7277          -9076
   4132.00000000          24427          -4300          -6698          17248
   4136.00000000           3348          13536           7753           5006
   4140.00000000          -1074         -11891          -5703         -19053
   4144.00000000         -10868          14446         -12140          26539
   4148.00000000           6519           4773           4395           1568
   4152.00000000          -3701          -4940          16307           6511
   4156.00000000           4023          14211           2390         -10145
   4160.00000000         -12058           2705          -1156          18206
   4164.00000000           8160          22084         -19133         -15449
   4168.00000000           -215          16739           9324          10971
   4172.00000000         -14727           6628           5733           4319
   4176.00000000         -11542           2616          19713          -1608
   4180.00000000            739          10256          13877          -5271
   4184.00000000          -6069          22041           -950          -1300
   4188.00000000           3897         -13853          28308           6345
   4192.00000000         -10452          -5483           9570         -13488
   4196.00000000         -10392          20734          -4153          -5067
   4200.00000000           5669          13349           7129           1579
   4204.00000000           6871          12727           2645           2326
   4208.00000000          10010          -1857          27583          -4882
   4212.00000000          13755           8389           -420           1741
   4216.00000000          -8466          28491         -18866          -6247
   4220.00000000            652           5482          29806          10223
   4224.00000000          -1884          13121           4157         -10045
   4228.00000000           5364          16931          17788           8928
   4232.00000000          17288           7120          22818          -2323
   4236.00000000         -15204           -356         -13414          11667
   4240.00000000          -4647           1114           7055          11625
   4244.00000000          26630          -5446           4526           5673
   4248.00000000          14156           4575          12698          -2135
   4252.00000000          10560           3186          -2411          -9743
   4256.00000000           9146           -189           8109         -21353
   4260.00000000         -12080          -7119           2707           3338
   4264.00000000           1651          -5681         -11056          -1047
   4268.00000000          -8738           9992          13541          -6704
   4272.00000000           3417           2964           -591          -8063
   4276.00000000           4492          -3616          -2574          -8722
   4280.00000000           5879           2726            974          -3464
   4284.00000000          21239           5560           9403           3819
   4288.00000000          11914           -675           3150         -11729
   4292.00000000            765         -21989          17011           3279
   4296.00000000         -10169           4284           8765          -5456
   4300.00000000           4952           5975           3147           1914
   4304.00000000           7448           2432         -14010          10230
   4308.00000000          13238          14480           3631           -379
   4312.00000000          -8504           5433         -15258           9667
   4316.00000000           9766           1759           3759          12604
   4320.00000000          11779           6529          -5119           1201
   4324.00000000          11802          -2059          10583          -1256
   4328.00000000          10026          -7391           8449           -484
   4332.00000000          -2080         -10458          -3686          -6730
   4336.00000000          -8587         -11437         -13789           2224
   4340.00000000         -14083           -291           4576          -3384
   4344.00000000           8603           8208         -11912            417
   4348.00000000          10754           -208          -4850          10141
   4352.00000000          -3625          14569           5083          19147
   4356.00000000         -13189           1074           7740         -20479
   4360.00000000           7506          14423          -7944          -7787
   4364.00000000           4946           2965           1975           1200
   4368.00000000          -9987           5161           6436           2985
   4372.00000000           -198          -1194          -8050            824
   4376.00000000          -1929          -2304           1951           1276
   4380.00000000           3499           7493          -1568          12673
   4384.00000000             55          -9197          -5868            154
   4388.00000000           -961          10372            503          24503
   4392.00000000          -1867           6573           2266          -6805
   4396.00000000           9736           4633           -956           1734
   4400.00000000           -506           1357          -2188           8860
   4404.00000000         -19379          -4711          -1755          -4215
   4408.00000000          -6415           6907           2107           4524
   4412.00000000           1423           9037          -6935          -3088
   4416.00000000           9884          -9559          -3731           3480
   4420.00000000           7603          -1945          20585           7503
   4424.00000000          19314          -8481           2530          -6748
   4428.00000000           2614           1344           5480          11076
   4432.00000000          -7356           2243         -11325           9922
   4436.00000000          10914          -6626           2928          -1985
   4440.00000000          -8938          -1392           5367           5607
   4444.00000000          10725           6177          12408           2949
   4448.00000000         -10715          15499          -1171           9237
   4452.00000000          -2229          10546            704           7432
   4456.00000000          14508           5613           -971          -5111
   4460.00000000         -15255          -3925           8954           4336
   4464.00000000          -5302          -5970          -6945           6947
   4468.00000000          15911          16986          10011          -3662
   4472.00000000           3465          -2168           2260           9210
   4476.00000000           1254          16371           6965          -3408
   4480.00000000           5909           9278           -863          -2704
   4484.00000000           4557         -11305          -3820           6589
   4488.00000000         -11242           8974          -1251          -9889
   4492.00000000           2846          -3020          -2396          10486
   4496.00000000          19460            -27           3639          14979
   4500.00000000           -406          11129          -2597           1704
   4504.00000000           3814           3095           -646          -3303
   4508.00000000         -11736           8164           5464           8950
   4512.00000000            357           1375          -6142         -10312
   4516.00000000            793           -104           5723          -7234
   4520.00000000          -6841          -1748          -2783          -1586
   4524.00000000          -3056           5459           6751         -11086
   4528.00000000           5929          -1745           1740             47
   4532.00000000           6568           3718          -1487         -12028
   4536.00000000          -3410           -156            856          -4826
   4540.00000000          -9770           2471          -4598           9789
   4544.00000000           4621          -2116          -9814           4249
   4548.00000000          -3351          14720           1045          -5375
   4552.00000000           -867          -3421          -5289         -11108
   4556.00000000          17460          -3162          -4172           5006
   4560.00000000           3202          -5074           3894          -3635
   4564.00000000          -1147          -9449            496          -5098
   4568.00000000           7757           6067          -7721          -7576
   4572.00000000           2863          -5099           2600          -6787
   4576.00000000          -3873            828          -2389           6084
   4580.00000000          -6978         -11897          -2913           5008
   4584.00000000          -5831           3866           3169          -3288
   4588.00000000           6401            746          -9636         -10908
   4592.00000000           1209          -9436           3595          -8010
   4596.00000000          -1884          -2515           6739          -3030
   4600.00000000          -4957           4344           2975          -4951
   4604.00000000          12302           4784           4742            872
   4608.00000000          -8338           7061          -2597          -5382
   4612.00000000          12119           3145          -9407          -3373
   4616.00000000          -2237           2129            791          10598
   4620.00000000          -4097           2670           3131            651
   4624.00000000           -991             -1           5902           5211
   4628.00000000            194          -2508           1056          13672
   4632.00000000           5678          10614           2427          -2265
   4636.00000000          -4153            270          -4187           5322
   4640.00000000          -3283          -3539          -3252          -9329
   4644.00000000           1190          -9572           3722          -7508
   4648.00000000          -5280          -5039           -855            865
   4652.00000000           7022           2071           -114           4071
   4656.00000000            734            675          -1440           1327
   4660.00000000           9352          -6262          -8686           1919
   4664.00000000           -755          -2875           1501           5177
   4668.00000000           1277         -11722          -9517           3469
   4672.00000000           3604           -363           1195          -8683
   4676.00000000           4047          -4643           6313          -2368
   4680.00000000           2578           5480           1848          -2750
   4684.00000000           1379           3056          -2595           1385
   4688.00000000           3193            720          -3419          -1403
   4692.00000000          -1559           5988          -7125          12233
   4696.00000000          -4029          -6336          -2492          -1265
   4700.00000000          -2082            811          -2759          -8832
   4704.00000000           1447          -9298           1424          -8305
   4708.00000000           1284           2038           5490          -2698
   4712.00000000           4326          -4747           6434          -5355
   4716.00000000           3715           -430          -4882           2600
   4720.00000000           2350          -3835           2455             75
   4724.00000000          -1668           -228          -3480           3796
   4728.00000000          -4722          -7126           4186           3111
   4732.00000000          -3479           2646            268          -2034
   4736.00000000            254          -2584          -1420          -5308
   4740.00000000          -2930           -699           2282          -3093
   4744.00000000          -2358          -3927           1490            -90
   4748.00000000           1642          -2389          -7452           1756
   4752.00000000           1907          -7986           1034           7968
   4756.00000000           -751            451          -7093           9134
   4760.00000000          -3891           4662            724            735
   4764.00000000           3188          -5303           -962           1878
   4768.00000000          -6145           3426             87           -280
   4772.00000000          -4625          -6904            917           1537
   4776.00000000          -2375          -2638          -5291           2926
   4780.00000000           -280          -2931           -184           4660
   4784.00000000           -839          -4990           5738           4467
   4788.00000000           -714           -485          -2271           4963
   4792.00000000          -1736          -4779           -989           4887
   4796.00000000           4576           -414          -3155           8686
   4800.00000000           -788          11641           5933           1778
   4804.00000000          -1317           -750          -2869          -4239
   4808.00000000           2769           -236           4235              8
   4812.00000000          -2794           -428         -12656           3654
   4816.00000000           1727           1241           2570           -815
   4820.00000000           3814           2681          -1665           6805
   4824.00000000          -7209           4756          -7622           1848
   4828.00000000          -2310           3401           7338          -2672
   4832.00000000          -5502          -3429           5400           -202
   4836.00000000           7201           2573           2949           9343
   4840.00000000           5352          -3592            435            706
   4844.00000000          11974           3027          -2968           1216
   4848.00000000            -92           2758          -3761          -7037
   4852.00000000          -4768           2519          -1079          -6622
   4856.00000000           7071           -233           1808           3482
   4860.00000000          -3818           1725          -1552           -516
   4864.00000000          -2782          -5142           2196            658
   4868.00000000            861          -3044           2219          -5174
   4872.00000000           6480           6295           -614          -4248
   4876.00000000          -4971            778          -3218          -2276
   4880.00000000          -3250           -873          -9416         -11305
   4884.00000000           2493          -3207          -4166          -4052
   4888.00000000           2846          -5437          -9838          -2817
   4892.00000000           2565          -1016           -701          -3160
   4896.00000000           5853          -1328            464           4275
   4900.00000000            257          -2133          10997          -1146
   4904.00000000            -56           7069           1917           3343
   4908.00000000           3300           2433          -7120            288
   4912.00000000          -2060           1064           1841           -690
   4916.00000000          -4112          -4106           3551          -7277
   4920.00000000           2822           1810           5941           -285
   4924.00000000          -2955          -2442            215           2632
   4928.00000000            -31           3390          -2933         -10355
   4932.00000000            558          -5343          -2988           6307
   4936.00000000           5337          -1613          -1458          -3567
   4940.00000000           2160           2893          -4084          -8474
   4944.00000000          -1160           -721          -2358           2517
   4948.00000000           7170           4740           3202            201
   4952.00000000          -2363          -1159          -1551           2041
   4956.00000000          -3277          -1938           6927          -1516
   4960.00000000           3092           1782           2795           1284
   4964.00000000          -1631          -7795           1278           3887
   4968.00000000           1346           3819          -1579          -3808
   4972.00000000           3629           1161          -2996          -1703
   4976.00000000           3767          -1898           2627           1270
   4980.00000000           5647           2739          -6016          -1995
   4984.00000000           1158          -3380          -1177          -2950
   4988.00000000            166          -2979           8726           2749
   4992.00000000          -3137           -970          -5074            974
   4996.00000000          -3956           2118           1932           2594
   5000.00000000           3210          -2459           -494           6223
   5004.00000000             -9          -3372            439           5314
   5008.00000000           4363          -1491          -3179           1786
   5012.00000000          -3435            348           -797           4144
   5016.00000000          -2764             -7           -463          -1123
   5020.00000000          -1912          -2346          -2048          -3297
   5024.00000000          -5894          -2262          -1427          -1924
   5028.00000000          -3443            359           2107          -1076
   5032.00000000             -5            101          -2329          -2951
   5036.00000000             -4          -1240           -652          -2995
   5040.00000000           -439          -6755           5998           1428
   5044.00000000           2972            897           4769          -3390
   5048.00000000          -5175          -1752           -797           1949
   5052.00000000           3559          -4014           -376           4690
   5056.00000000          -1732            517          -3018          -5810
   5060.00000000            162          -3457          -2741            708
   5064.00000000           1410          -4472          -1194           1267
   5068.00000000           2241           1665          -1657          -6412
   5072.00000000           1094           2790           1170           1488
   5076.00000000          -1253          -1223           6413           1046
   5080.00000000           -717           2174          -5179          -1975
   5084.00000000          -2421           5166           -142           -282
   5088.00000000          -4826          -5319          -4412          -4947
   5092.00000000          -1490            843           1597           5498
   5096.00000000          -1165          -2064           1128          -3613
   5100.00000000          -1316           1564           -224           4372
   5104.00000000           -368           5493           2371          -2866
   5108.00000000            -96            789          -4030          -1196
   5112.00000000           -309           -645          -3044          -2461
   5116.00000000           5328           -189             43          -9085
   5120.00000000           1040          -1080           1975           3839
   5124.00000000           6742           7491          -3428          -2599
   5128.00000000           2444            591          -5215          -2620
   5132.00000000           -832          -3053           5860          -2461
   5136.00000000           1525           -760          -2077          -4736
   5140.00000000            823          -4744          -9078           -658
   5144.00000000           3089           1435            875          -2010
   5148.00000000          -2112          -5231           -902            726
   5152.00000000          -2931           3211             49          -3637
   5156.00000000           2186          -2890          -4516          -3699
   5160.00000000            524          -5387             48          -5599
   5164.00000000          -2991           -854           4528           1012
   5168.00000000           1132           3467          -1591          -3997
   5172.00000000           1854          -2436          -1565          -5504
   5176.00000000          -3987          -2290           2718           -543
   5180.00000000           2220          -5660           -812           -540
   5184.00000000         -10078          -1099           -453            767
   5188.00000000          -1685            582          -1532           1807
   5192.00000000           3683          -3229          -1771          -1237
   5196.00000000          -1018          -5312            187          -3657
   5200.00000000           -777          -3302            -39           -504
   5204.00000000           2572          -6784          -4228            689
   5208.00000000          -2263          -1659           2894              0
   5212.00000000           -298          -5251            719            527
   5216.00000000          -2073           1709            790           4259
   5220.00000000           1039          -1659           3995           2306
   5224.00000000           -505            508           -958          -3843
   5228.00000000             81          -3409          -1576          -1790
   5232.00000000           4455          -1966           4978          -1889
   5236.00000000          -1968           1552           4468            581
   5240.00000000          -5924           1368          -1922          -4468
   5244.00000000           3217          -1266          -5127           2597
   5248.00000000           1435          -1211           1736          -4552
   5252.00000000          -1301           1514            294          -2689
   5256.00000000           2563          -2278          -4307          -5091
   5260.00000000           -159          -3234           3831             70
   5264.00000000           1971           2016           3769           4465
   5268.00000000          -1114           -319           2850           1406
   5272.00000000          -4192          -2020           -954          -4282
   5276.00000000           3075          -1910          -5181           -580
   5280.00000000          -1082           -986          -1952           2851
   5284.00000000          -1764            415          -1692           -550
   5288.00000000           3127           -597          -1385           3487
   5292.00000000           1142          -2668           2274           2342
   5296.00000000          -1564           2011           2837           -183
   5300.00000000           -816          -2786             62           2210
   5304.00000000           2616          -2194          -3427            487
   5308.00000000            686           -636           1626           1003
   5312.00000000           2086            138            840          -1205
   5316.00000000           -448            414          -1136          -1452
   5320.00000000           1989          -1395          -1279           -315
   5324.00000000           1419            775            518           -701
   5328.00000000           1393            -88          -1193          -1659
   5332.00000000           -569           2778           2578          -4382
   5336.00000000             44           3669            -20           2625
   5340.00000000           -995          -2731          -2510          -2229
   5344.00000000          -2038           -777          -3323          -3038
   5348.00000000           3251           -708           3065           2638
   5352.00000000           1721            708          -3440           3617
   5356.00000000           1822           2189            656           2320
   5360.00000000            109           -696          -4105            139
   5364.00000000            577           2054           3021          -1847
   5368.00000000           -999          -1568           -618           2904
   5372.00000000          -3104          -2470            132           1354
   5376.00000000           2271            696           -500          -2553
   5380.00000000           3364          -1480          -4187            275
   5384.00000000           -583           2661           1268           1619
   5388.00000000           2299          -1059            741          -2199
   5392.00000000           2375          -2085            968          -4412
   5396.00000000           -723           3886           3277          -1603
   5400.00000000          -2151          -1586          -4128            406
   5404.00000000           1857            306            363          -2062
   5408.00000000          -1845            728           2200          -1579
   5412.00000000          -2427           2494           -256           1464
   5416.00000000          -1432           -158            576          -1926
   5420.00000000           -328           1167           -812          -1826
   5424.00000000          -2487          -3459          -3094           -662
   5428.00000000           2019          -2724          -1034           -532
   5432.00000000            809          -2369            462           1959
   5436.00000000           2432           1293           2891           -344
   5440.00000000           2065            129             89            175
   5444.00000000           2498           3111           -231            502
   5448.00000000            706            810           1334           1007
   5452.00000000           -536           1794            869          -1932
   5456.00000000            -89           -908           -253          -1902
   5460.00000000           2585          -2633            289          -2259
   5464.00000000            301          -3426          -2989            684
   5468.00000000            410           -319          -3074          -2389
   5472.00000000           1834           1196           1639           -548
   5476.00000000          -2106           -873           -852            -86
   5480.00000000            937            731          -2719          -3745
   5484.00000000           -188          -2977          -4260           1796
   5488.00000000           2516           -734           -244          -3252
   5492.00000000           1894           -948           2084            363
   5496.00000000           -926          -1264          -1684           1044
   5500.00000000             69          -1216             78          -1124
   5504.00000000            295           1426           2501           1752
   5508.00000000           -462           2411          -2922           1286
   5512.00000000             26           1369           -305            398
   5516.00000000           1015           -627            602           -778
   5520.00000000            -21          -1176          -1117            294
   5524.00000000            724           -176          -3077           1078
   5528.00000000            721          -1192          -1973          -2558
   5532.00000000          -1337          -4685            128           -310
   5536.00000000           3252            -83           1768           2139
   5540.00000000            460           1468          -3009           -657
   5544.00000000          -3931           1864          -1820          -1033
   5548.00000000           -889           -879            658            564
   5552.00000000          -1852            131           -731            999
   5556.00000000           -195           1032          -2030          -2670
   5560.00000000            425            412           -873           -247
   5564.00000000           1261            592           -658           -671
   5568.00000000           1506          -2695          -2488            855
   5572.00000000           1314          -2736           1692            152
   5576.00000000          -2669          -1905           -313           1269
   5580.00000000          -2300           -835           -497          -1651
   5584.00000000          -1231           -408            -64           1815
   5588.00000000           1178            -65          -2274           -544
   5592.00000000          -3546          -1601            472           -551
   5596.00000000          -1667           2032           -305           -234
   5600.00000000            913           -257            538            368
   5604.00000000            358          -1229          -1254            768
   5608.00000000           1701          -1508           3004          -2339
   5612.00000000           -470            540           -431          -1143
   5616.00000000            908          -2097           -543          -2769
   5620.00000000          -1543          -1382           1708           1775
   5624.00000000           2101            937            545           -840
   5628.00000000          -1199          -1741           1708          -2290
   5632.00000000          -1636           1916            650            -80
   5636.00000000          -2671          -1062            661            933
   5640.00000000          -3511           -156           2173          -3549
   5644.00000000           -245             -0          -1124           4167
   5648.00000000          -1566            780           -749            858
   5652.00000000            319           -692           -335            -84
   5656.00000000            150          -1014           -581           1443
   5660.00000000          -1112          -3423           1179          -2620
   5664.00000000             97          -1469            806            235
   5668.00000000           1053          -2125             41           -849
   5672.00000000            764           1453            839          -3550
   5676.00000000           1084           2807            118          -1027
   5680.00000000           2909           -608           1067            467
   5684.00000000           1455            191           -304           -321
   5688.00000000           1123            975            510          -1905
   5692.00000000             -3            363          -3340          -1460
   5696.00000000           -507           1176          -1039           3831
   5700.00000000          -1727            289           -929           -664
   5704.00000000           -993            237           -574            655
   5708.00000000            188           -450           -562          -1997
   5712.00000000           -810          -1029          -1834           1121
   5716.00000000           -656          -1764           -121            545
   5720.00000000           1933            136           1439           2132
   5724.00000000           1343          -1248            975          -1126
   5728.00000000            647           -717            226           -145
   5732.00000000            389           -995          -1088          -1377
   5736.00000000           -602           -137           -224          -1463
   5740.00000000           1884          -2969          -2417             25
   5744.00000000          -3075           -749           -806          -1395
   5748.00000000           1405          -2025           1253           1477
   5752.00000000           -253           1124            824            -26
   5756.00000000           -507            234           -331          -3013
   5760.00000000           1576           -147           1790            693
   5764.00000000          -1215          -1246            641            333
   5768.00000000           -822           -810              7           -672
   5772.00000000           -126            525          -2050           -778
   5776.00000000           -428            282           2356          -1752
   5780.00000000            196            597           -974           1480
   5784.00000000            772           -528           1080           -159
   5788.00000000          -1254            183           1539            742
   5792.00000000          -1167           1601          -1477          -2510
   5796.00000000           -725            863           -550           -683
   5800.00000000            684           -187           -466           -353
   5804.00000000           -827           1239             25           1704
   5808.00000000           1057          -1794            457           1230
   5812.00000000            643          -3041           -604           -573
   5816.00000000           -506          -1054            142          -1150
   5820.00000000           -544          -1310            619           -202
   5824.00000000           2286            891            172           1097
   5828.00000000          -1091             87           -440          -1019
   5832.00000000          -1193           -518           -787           1496
   5836.00000000           1259           -532            849            855
   5840.00000000            316          -1139          -1160            -92
   5844.00000000            -44           -840            233           -711
   5848.00000000           2277          -1283          -1052           -877
   5852.00000000           2554           2177            789           -622
   5856.00000000            135            436           1054            910
   5860.00000000          -1379            -38          -2288            686
   5864.00000000           2626          -2216           1180            -13
   5868.00000000           1474            591            445            948
   5872.00000000            481           1616            452           1846
   5876.00000000          -2965           -548          -1871            397
   5880.00000000           1681           -158           -198          -2217
   5884.00000000            685           1215            547           1602
   5888.00000000           1653          -1993           -394           1794
   5892.00000000          -1284            -30            917            304
   5896.00000000            121           -920           1390           1605
   5900.00000000          -1084            159           1647          -1608
   5904.00000000            779           1196          -1023           -545
   5908.00000000          -1484           -302           1612           -306
   5912.00000000           2202           1420           -162           1186
   5916.00000000           -437            499           -811           -553
   5920.00000000           2196            341           -236          -1906
   5924.00000000            687            342            -45            693
   5928.00000000            754            -67           -757           -503
   5932.00000000            218            517           -298           -504
   5936.00000000           1395          -2064           -325           1266
   5940.00000000           -112           -199           -794            631
   5944.00000000          -1739            795            507           1213
   5948.00000000           -298            797            930          -1034
   5952.00000000            214            652            840           1170
   5956.00000000            635            728          -2616          -2118
   5960.00000000            186            107            641            498
   5964.00000000           -112            751            792          -2143
   5968.00000000           -425            -86           -636           -125
   5972.00000000            476           -163           -285           1215
   5976.00000000            375            311            653            331
   5980.00000000           -201          -1741           1027           -925
   5984.00000000           -662           1344            918           -561
   5988.00000000            737           1608            549           -555
   5992.00000000           -552            168             85           -362
   5996.00000000            672             69          -1294          -1163
   6000.00000000            674           -181            391            266
   6004.00000000            255           -475          -1614            898
   6008.00000000           -986            703           -925            163
   6012.00000000            899            366          -1099            814
   6016.00000000          -1029           -462           -688           -386
   6020.00000000            128          -1593            403           -487
   6024.00000000             99           1259          -1353            124
   6028.00000000            483             21           -185           -459
   6032.00000000          -1607             89           1166          -1129
   6036.00000000            150            580           -169           -359
   6040.00000000            -54           2810          -1154           -451
   6044.00000000           -830           -699            455           -267
   6048.00000000           -726            -51            762           -101
   6052.00000000           -328            304            322          -1198
   6056.00000000           -422             52            516            212
   6060.00000000           1037            156          -1183           -608
   6064.00000000           -860             79              8            506
   6068.00000000            949            322            812            184
   6072.00000000          -1212           1126           -200            749
   6076.00000000           -195           -965           -345           -614
   6080.00000000          -1234           1944           -229          -1350
   6084.00000000            229           -872           1150            542
   6088.00000000           -324            293            608           1122
   6092.00000000            294           1295            -83            613
   6096.00000000            899            525           -177            474
   6100.00000000             31            302            734            785
   6104.00000000            225           -543            860           -606
   6108.00000000            352            668           -525            175
   6112.00000000            686           1066           1523            185
   6116.00000000          -2097            573          -1659            347
   6120.00000000            401          -1078           -518           2049
   6124.00000000           -673            441           -421            221
   6128.00000000            478           -657            718            500
   6132.00000000            629           1056            474           1670
   6136.00000000           -844            942          -1971            252
   6140.00000000           -219            100           -565           -105
   6144.00000000          -1241             61            930            763
   6148.00000000            102           -370           -591            320
   6152.00000000           1383            254           -213           -796
   6156.00000000            -86             52           -875           -891
   6160.00000000            634             35             94            664
   6164.00000000           -510           -722            412            265
   6168.00000000            618           -640           -501            -98
   6172.00000000           1215           -487            336           -744
   6176.00000000           -571           -901           1807           -895
   6180.00000000          -2027           -717             63          -1403
   6184.00000000            213          -1086           1251           -438
   6188.00000000            876           1122           -789            825
   6192.00000000           -448            292          -1171           1196
   6196.00000000            -73            872           -831            426
   6200.00000000            740            228          -1127           -661
   6204.00000000            660            289           -504            983
   6208.00000000            439            102             86           -267
   6212.00000000           -350           -718          -1661            242
   6216.00000000           -661            247           -493           -927
   6220.00000000             68            339           -801            809
   6224.00000000            544            666          -1341           -589
   6228.00000000           -630           1181           -408            293
   6232.00000000            292            340           -248           -150
   6236.00000000            634            289            -19           -481
   6240.00000000           1464           -884           1192           -890
   6244.00000000            523            536            728            446
   6248.00000000            743           -518           -844           -545
   6252.00000000            387           1354            888           -228
   6256.00000000            885           -451             83            192
   6260.00000000            202            505            309            107
   6264.00000000           -156            -11            138            240
   6268.00000000            473            863           -669           -339
   6272.00000000           -644            941           -162          -1184
   6276.00000000             28           -444            387           -230
   6280.00000000            853           -244           -268            656
   6284.00000000           -826           -866            553            695
   6288.00000000            -57             -9           -716           -310
   6292.00000000           -198            329             49             -7
   6296.00000000            585            515           1063           -162
   6300.00000000           -105            633            831           -216
   6304.00000000           -126            895            -76           -201
   6308.00000000           -988            257            368            -31
   6312.00000000          -1458            850            190           -741
   6316.00000000            569            534           -145            465
   6320.00000000           -604           -681            836             62
   6324.00000000           -572           -576           -881           -534
   6328.00000000           -211            256           -595           -198
   6332.00000000           -320            -96            876            196
   6336.00000000           -645           -899           -189           -654
   6340.00000000            302           -574            404            440
   6344.00000000            301            -45            309             -0
   6348.00000000          -1251            210            471            -81
   6352.00000000           -618            715            639             47
   6356.00000000            420            404            177            -42
   6360.00000000            804            153            227           -758
   6364.00000000           -203            997           1651           -303
   6368.00000000            276           -110             70           -700
   6372.00000000           1008            -55            487            653
   6376.00000000            631           -246            607           -589
   6380.00000000            904           -457           1602           1097
   6384.00000000             28           -398           -941            667
   6388.00000000            680            865           -382            -12
   6392.00000000           -266            435            -67            642
   6396.00000000           -180            -63            791           -528
   6400.00000000           -493            478            386            849
   6404.00000000            702             88           -478             26
   6408.00000000           -152            -54            350            417
   6412.00000000           -671            102            941            291
   6416.00000000            322            534            119             -1
   6420.00000000            202            -61            827             90
   6424.00000000           1326           -120           -184            -14
   6428.00000000            762            105           -406            -30
   6432.00000000           -936             37            707           -418
   6436.00000000            551           -424            421           -112
   6440.00000000             21            164            443            585
   6444.00000000            -45            538            -43            143
   6448.00000000            702            375            144           -251
   6452.00000000            417            966            620            543
   6456.00000000            321           -264            -64           -132
   6460.00000000           -491            396             22           -283
   6464.00000000            850             12           -347            275
   6468.00000000           -603           -151           -486            835
   6472.00000000           -523           -453            -86            284
   6476.00000000            -58            395           -606            656
   6480.00000000             74             64           -487            359
   6484.00000000           -270           -609           -156            192
   6488.00000000           -403            295             54           -174
   6492.00000000           -578            404             74           -235
   6496.00000000            330           -734           -269             39
   6500.00000000             31           -609            226           -743
   6504.00000000           -132            435            345            300
   6508.00000000           -215           1024            315           -615
   6512.00000000           -208            194             82           1159
   6516.00000000           -142            223            200            409
   6520.00000000            325            516              8            -15
   6524.00000000            -28             34            494           -714
   6528.00000000            172            406             40            289
   6532.00000000            -88             17           -276           -428
   6536.00000000           -177              8            157            795
   6540.00000000           -376            823            278           -130
   6544.00000000           -295           -374           -136            282
   6548.00000000            411           -824             69           -228
   6552.00000000           -464           -568           -358           -746
   6556.00000000           -355           -252            667            248
   6560.00000000            235            282           -814            245
   6564.00000000           -937            310           -582            317
   6568.00000000            496            776           -176            215
   6572.00000000           -939            127            195            488
   6576.00000000           -318            381           -106             78
   6580.00000000            574            956            649           -136
   6584.00000000            616            641             97           -805
   6588.00000000            191           -202            -50            127
   6592.00000000           -345            562             13            408
   6596.00000000            -82           -118            236            -52
   6600.00000000            264           -113            783           -619
   6604.00000000            768            240           -432            989
   6608.00000000             91            -92           -638           -103
   6612.00000000            -73            -25            356              5
   6616.00000000           -167             52           -698           -290
   6620.00000000           -233           -320            654           -376
   6624.00000000           -204           -471             50            -42
   6628.00000000            310           -181            353            406
   6632.00000000           -249            -34            186           -619
   6636.00000000            148            145            938            252
   6640.00000000            515            -93             95            208
   6644.00000000            -10            627           -175            654
   6648.00000000            242           -265           -360           -230
   6652.00000000            308            595            222            405
   6656.00000000            346            397            155            803
   6660.00000000           -270            474            638            142
   6664.00000000            203            442            532            254
   6668.00000000           -168             17           -276            320
   6672.00000000            436           -472            311            577
   6676.00000000            175             61            455            134
   6680.00000000            432           -224            160           -419
   6684.00000000            -95            -32            787           -538
   6688.00000000           -137            241           -157           -109
   6692.00000000            -43             90           -139            -59
   6696.00000000           -253           -297            221            795
   6700.00000000            106           -212           -547            227
   6704.00000000           -382           -156           -310           -371
   6708.00000000           -316            -93           -485           -434
   6712.00000000             45             -8           -201           -178
   6716.00000000            171             38           -619           -255
   6720.00000000           -474           -471            306            -60
   6724.00000000           -115           -182           -389            100
   6728.00000000           -301           -360            233            600
   6732.00000000           -167           -309           -759             16
   6736.00000000            172             10           -177           -368
   6740.00000000             11             53            -33            465
   6744.00000000            422            361            371           -444
   6748.00000000             -1            414            323            229
   6752.00000000            -58            134            917           -679
   6756.00000000            172            232            -14            144
   6760.00000000            126             37           1034           -502
   6764.00000000            458            426           -234           -174
   6768.00000000             62           -167            184            188
   6772.00000000            245             94            302             12
   6776.00000000           -214            -57           -262             11
   6780.00000000           -149             45           -213            421
   6784.00000000            650           -232            -85           -328
   6788.00000000            394            218            289             -5
   6792.00000000            205             92            235            366
   6796.00000000           -210            110             75           -118
   6800.00000000           -130            147            254           -141
   6804.00000000             68            188            325            158
   6808.00000000            111           -145           -158           -425
   6812.00000000           -259           -120           -370             61
   6816.00000000            235           -265           -374           -318
   6820.00000000            308             10           -428            487
   6824.00000000           -214            251              3            132
   6828.00000000           -521             81           -341            531
   6832.00000000            475           -168           -682            327
   6836.00000000           -405           -123            282            156
   6840.00000000           -215           -167            -39           -258
   6844.00000000             11           -120            319           -211
   6848.00000000             45            272             -6           -133
   6852.00000000           -231           -144            -27           -147
   6856.00000000            -35           -176            -24            204
   6860.00000000           -241           -379            -82            -90
   6864.00000000            310            300           -151              5
   6868.00000000           -210           -147            111             -4
   6872.00000000           -438           -201            285            152
   6876.00000000           -178            845            -61           -137
   6880.00000000            -63            -45            408            485
   6884.00000000            334           -330           -214             28
   6888.00000000            277            -87             53             93
   6892.00000000             65           -148           -110            646
   6896.00000000           -235           -101            381            217
   6900.00000000            356            157            545           -111
   6904.00000000           -129           -419            -85           -351
   6908.00000000           -114             90            575            292
   6912.00000000            -32            -23           -269            180
   6916.00000000             35            -97           -303           -386
   6920.00000000             87              8             13            -19
   6924.00000000           -374             85           -325            184
   6928.00000000             74           -154            -16             -9
   6932.00000000           -108            243            -46            324
   6936.00000000            -72           -359           -549            130
   6940.00000000            202            255            297             26
   6944.00000000             48             80            145             -8
   6948.00000000            495           -321             53           -229
   6952.00000000           -196           -247           -210             72
   6956.00000000             51            356           -681            171
   6960.00000000             75           -256             72             72
   6964.00000000            405             30            634             65
   6968.00000000            124           -308            145           -134
   6972.00000000           -328           -131            136            257
   6976.00000000           -153            -86           -312           -655
   6980.00000000           -149             60           -119            -75
   6984.00000000            157            147            -37            -22
   6988.00000000           -188           -291            271            129
   6992.00000000            157           -182            -91           -188
   6996.00000000            311            183            305           -115
   7000.00000000            157           -231            -18            -98
   7004.00000000           -159           -202            196           -133
   7008.00000000            109            392             63             35
   7012.00000000             32           -335             74           -193
   7016.00000000           -305            340             87           -209
   7020.00000000            270            -56            -48           -281
   7024.00000000            226            346            315           -190
   7028.00000000           -171            -56            454           -121
   7032.00000000            475           -225            325            115
   7036.00000000           -276            -28            141           -173
   7040.00000000           -256            142            155           -284
   7044.00000000             52            -41           -470             91
   7048.00000000            460           -366            188            -88
   7052.00000000             -8             34            136           -224
   7056.00000000           -123            -47            -75           -355
   7060.00000000           -399           -310           -134            220
   7064.00000000            266           -119           -262            274
   7068.00000000            229            -26            -87              9
   7072.00000000             60           -149           -145           -186
   7076.00000000           -369            -55            -85           -169
   7080.00000000            100            317           -219            141
   7084.00000000            -26            133           -503            525
   7088.00000000            144           -174           -271           -154
   7092.00000000            179            156            239           -256
   7096.00000000             77            463            170           -260
   7100.00000000            150            -44            166            -35
   7104.00000000            132            313           -150           -336
   7108.00000000           -103           -134             -6             13
   7112.00000000            -66            189           -144           -203
   7116.00000000           -485            -14           -278           -124
   7120.00000000             93            -79            226           -103
   7124.00000000             65            164            281            221
   7128.00000000           -217           -255            223            -54
   7132.00000000            266           -284           -152           -113
   7136.00000000             79             91           -215            -62
   7140.00000000            -95           -149           -162           -312
   7144.00000000             71            257           -535           -234
   7148.00000000            163           -537           -190             27
   7152.00000000           -181            157            -40           -141
   7156.00000000           -438            129            207            147
   7160.00000000           -165             77            189           -170
   7164.00000000             87            -19            186              9
   7168.00000000            433            183            100           -220
   7172.00000000              1             -3            104            -41
   7176.00000000            -54            104           -151            -33
   7180.00000000            140            190           -335              3
   7184.00000000            -40            289           -403           -201
   7188.00000000           -228            162            205            127
   7192.00000000           -271            -26             73           -303
   7196.00000000             32           -143           -236              9
   7200.00000000            328            214             65            106
   7204.00000000           -238            206            112             -5
   7208.00000000           -113            -90             17           -121
   7212.00000000           -389            -60           -106           -248
   7216.00000000           -214           -250            -24            218
   7220.00000000            -33           -232              4            205
   7224.00000000           -226           -220            407           -502
   7228.00000000           -105           -163             47           -153
   7232.00000000             13            293             50            -80
   7236.00000000           -154             90           -156            167
   7240.00000000            359            -59           -289             91
   7244.00000000            328            -14            205           -132
   7248.00000000           -186           -101            138           -104
   7252.00000000            149            315            -45            147
   7256.00000000           -215            -85           -554            287
   7260.00000000             21            290            288            152
   7264.00000000           -157             48            139            -83
   7268.00000000             81           -309            -52            -59
   7272.00000000            243             16           -104           -103
   7276.00000000             -9           -333           -297            -94
   7280.00000000            111            300            440             45
   7284.00000000            221             11            -70            145
   7288.00000000             39             -4            186            290
   7292.00000000            260            162            -20            118
   7296.00000000            122            -19           -239             30
   7300.00000000           -268           -144           -155           -141
   7304.00000000           -185            -14             82             -2
   7308.00000000           -117            -73           -109           -108
   7312.00000000           -129           -245           -389             30
   7316.00000000            -28           -255             15            152
   7320.00000000             79            144           -114             13
   7324.00000000           -104            -26            -21             18
   7328.00000000            379           -166             78            116
   7332.00000000           -180           -129            227           -166
   7336.00000000            -42            154             95           -277
   7340.00000000           -121            188             73           -238
   7344.00000000           -207           -161             11             13
   7348.00000000            -15            -83            129             50
   7352.00000000           -142            188           -194           -162
   7356.00000000            -37            192            284             69
   7360.00000000            -84            174             74           -228
   7364.00000000             35            -35            140            185
   7368.00000000            148             54           -157             65
   7372.00000000           -251            230            -49            -70
   7376.00000000           -179            -57           -152           -274
   7380.00000000           -117            148            -25             89
   7384.00000000            -31             75            181             48
   7388.00000000            -87            100           -124            228
   7392.00000000            170           -204           -118            -46
   7396.00000000            218            144             51             16
   7400.00000000            100             53           -155            176
   7404.00000000            115           -405            248            182
   7408.00000000            -16             73            -69            260
   7412.00000000            141             79             76           -344
   7416.00000000           -153            -90             16            155
   7420.00000000            -74             -7             31            137
   7424.00000000             91              8             39             -3
   7428.00000000           -262             10            -95            -65
   7432.00000000           -261            155           -143           -105
   7436.00000000              3            -98           -112            211
   7440.00000000            138             52            103             -8
   7444.00000000            -75            191            224            -53
   7448.00000000             39            -47           -125             50
   7452.00000000            227           -184             18            249
   7456.00000000           -205            216            -17           -104
   7460.00000000           -163             49            -18           -100
   7464.00000000           -217             26            289             83
   7468.00000000           -108           -117            -11            -54
   7472.00000000             26            -62            155             81
   7476.00000000            137            -30            128            -87
   7480.00000000           -119            -54             35           -248
   7484.00000000           -431            -54            310            203
   7488.00000000             89            171            -76           -244
   7492.00000000            257            172           -244             96
   7496.00000000            152             -1             43            -82
   7500.00000000           -212            -19            300           -233
   7504.00000000             -5            -43            102             25
   7508.00000000           -112            -78           -251            -64
   7512.00000000            222           -108           -126             98
   7516.00000000            -53            -26             -9             35
   7520.00000000           -105              2            178              5
   7524.00000000             78            -32           -280             72
   7528.00000000              9             37             66           -117
   7532.00000000            -18             67             70            225
   7536.00000000             92             62              6            -15
   7540.00000000           -145            -74           -101            -27
   7544.00000000            -49            -47            218            252
   7548.00000000             25            -62           -182            -14
   7552.00000000             87           -251           -169            127
   7556.00000000             -8            -27            154            -37
   7560.00000000             41            117           -272            -36
   7564.00000000            -97           -156            137           -213
   7568.00000000             97            225           -262            -96
   7572.00000000             -6           -117            150             16
   7576.00000000             65            165           -169            -87
   7580.00000000             97           -213           -155             52
   7584.00000000           -122            -28            -65            179
   7588.00000000           -105            -38            243           -186
   7592.00000000             31             90           -164            199
   7596.00000000            108           -107            -20             11
   7600.00000000            100            -20             80             53
   7604.00000000            155           -158           -111             39
   7608.00000000             37           -158            264            -65
   7612.00000000             33           -348           -207             77
   7616.00000000             31            -90            146            -72
   7620.00000000            196             58             57            169
   7624.00000000             73            -25           -216           -142
   7628.00000000            -60            -11             -2             -9
   7632.00000000            -76            -96           -110            149
   7636.00000000             40             19            126             -2
   7640.00000000            -90             17            -91           -123
   7644.00000000             56             44            157            136
   7648.00000000           -159            -44            152           -154
   7652.00000000            163             32            100             23
   7656.00000000            -12            -65            137             10
   7660.00000000           -310            117             58            247
   7664.00000000             -6             97           -129             86
   7668.00000000            -41            114             48           -187
   7672.00000000             51            -24           -141            -22
   7676.00000000             -2            -73            116            236
   7680.00000000            -12            -15            -24            -25
   7684.00000000           -165            -16            186            -31
   7688.00000000            164            -79            -56            -97
   7692.00000000            116            -27             87            -17
   7696.00000000             12             -9            211              4
   7700.00000000             21            -87           -116             43
   7704.00000000             13           -104           -127           -198
   7708.00000000            -16             16            -46            205
   7712.00000000            -34            208            109             81
   7716.00000000           -221            -84             70            -54
   7720.00000000            103           -147           -104            -36
   7724.00000000            135             57            -24            -33
   7728.00000000             24            -29            159            130
   7732.00000000             75            -48            -80           -116
   7736.00000000           -172             62             26            -63
   7740.00000000             16            -73            249            -72
   7744.00000000              6            171             92            156
   7748.00000000            168            -68             62            -60
   7752.00000000           -113             35             49             32
   7756.00000000             10            -70            -32            -18
   7760.00000000             38           -115             69             49
   7764.00000000            -75            -39             68             76
   7768.00000000            -50           -102              3            -63
   7772.00000000             37             24            137             24
   7776.00000000            -20           -142             -9            -16
   7780.00000000           -102            192             65            119
   7784.00000000           -110            -34           -162             76
   7788.00000000            -76             23            175           -188
   7792.00000000            102            -61           -131            123
   7796.00000000            -94            -55           -189           -147
   7800.00000000             47            -97            123            -28
   7804.00000000             12             16            129             28
   7808.00000000            -63             70           -103             93
   7812.00000000             82            -61           -195            124
   7816.00000000             61             42             -9            -14
   7820.00000000             53            -37           -108             53
   7824.00000000             64            -25           -119            106
   7828.00000000           -123              3            127            -26
   7832.00000000             84            106            -49             64
   7836.00000000           -116            -35             67            -41
   7840.00000000           -117             24             49            -51
   7844.00000000             66            -50            -31             50
   7848.00000000           -105            179              4            171
   7852.00000000            -58           -124            -65            -35
   7856.00000000            -98             16             20             -1
   7860.00000000             75            -46              9             74
   7864.00000000            194            -71            157            -77
   7868.00000000            103            -46            -60             50
   7872.00000000           -117            -67           -106            -24
   7876.00000000            152             90            -69             54
   7880.00000000            -15           -139            145            -32
   7884.00000000           -100            109             70            115
   7888.00000000              5             78             -1            -81
   7892.00000000             37            -83            104            166
   7896.00000000             47            135            -24             18
   7900.00000000            -37            -72             85            -48
   7904.00000000              2            159            -99            116
   7908.00000000             88             42            -87           -109
   7912.00000000             44             15              1            -49
   7916.00000000             82             73             17             70
   7920.00000000            -12             80            -27            -53
   7924.00000000            156            196             42             71
   7928.00000000             50            -84             64             67
   7932.00000000             57             33            -69            100
   7936.00000000             42             -8             20              8
   7940.00000000             40           -211             61             69
   7944.00000000            -24            190            113            -66
   7948.00000000             60             25            -68             -5
   7952.00000000            -41            -49             -1            -28
   7956.00000000             43           -130            -26            -44
   7960.00000000            -28            -40             76             13
   7964.00000000            -55             25           -106             32
   7968.00000000             87             42             14             51
   7972.00000000           -134            -48             56             36
   7976.00000000            -46             49           -113             84
   7980.00000000             59             79            -57             79
   7984.00000000              1            112             54             -2
   7988.00000000             84             60             46              1
   7992.00000000             13             30            -26              9
   7996.00000000            -84           -132            102            -17
   8000.00000000            -36              0            -19            -95
   8004.00000000            -64             11           -135            -70
   8008.00000000             31             39              6             50
   8012.00000000            -74             14            -26            -59
   8016.00000000           -107            141             -2             -1
   8020.00000000              9            -93            -48             31
   8024.00000000             42            -62            -45             13
   8028.00000000           -100            137            -82            -18
   8032.00000000             36             96             33             66
   8036.00000000            131             28             37             53
   8040.00000000             57             47            -21            -93
   8044.00000000            -33             88            -18            126
   8048.00000000             16             38             -2            -32
   8052.00000000             13            -77            -51            -26
   8056.00000000            -79            -64            -11             16
   8060.00000000             29            -29             39            -33
   8064.00000000             37           -117             -2             15
   8068.00000000           -163             48             40             47
   8072.00000000             -6            -57            200            -17
   8076.00000000             -8            -23             52             27
   8080.00000000             -6            -39            -49            107
   8084.00000000             23             -9            -18             17
   8088.00000000            -30            -56           -131             45
   8092.00000000            163             42              5            -65
   8096.00000000             31            -40              4             35
   8100.00000000            -21             48            -47             53
   8104.00000000             67             20            -30            -57
   8108.00000000              5             79            -26             -9
   8112.00000000            -50            -27             34            133
   8116.00000000            -14             10             62             32
   8120.00000000              2            104             12             68
   8124.00000000             -9              5             39             59
   8128.00000000             47             48             44             36
   8132.00000000            -59             35            -54             94
   8136.00000000             43             -9             38             28
   8140.00000000             52             11            -15             62
   8144.00000000             50             -6            -52             33
   8148.00000000           -128            -52            -79            -50
   8152.00000000            -19             74             25             54
   8156.00000000             33             19            -36             38
   8160.00000000             -9              8            -30             -5
   8164.00000000            -57             17              6             31
   8168.00000000             39             98            -69           -126
   8172.00000000            -65            -45            -70             18
   8176.00000000            -22             25             -8             44
   8180.00000000            -68             49            -26            -14
   8184.00000000             33             56            -66            -88
   8188.00000000             50             86           -124             28
##END NTUPLES=NMR FID
##END=
