##TITLE=CEC-PhSi2-flow(sequence-1515)-06-08-26
##JCAMP-DX=5.01 $$ Nanalysis NMReady v2.2.5.1
##DATA TYPE=NMR FID
##DATA CLASS=NTUPLES
##ORIGIN=Nanalysis Corp.
##OWNER=Nanalysis
##LONG DATE=2026/06/08 15:17:54-0400
##SPECTROMETER/DATA SYSTEM=NMReady 60/nanalysis-X542
##INSTRUMENTAL PARAMETERS=^1H
##TEMPERATURE=32.988574
##PRESSURE=1.000000  $$ Bar
##RESOLUTION=0.00001999999949
##SAMPLE DESCRIPTION=None
##.OBSERVE FREQUENCY=60.55169569964014
##.OBSERVE NUCLEUS=^1H
##.SOLVENT NAME=Toluene
##.ACQUISITION MODE=SIMULTANEOUS
##.SHIFT REFERENCE=INTERNAL, Toluene, 4096, 5.00000000000000
##.SOLVENT REFERENCE=5.00000000000000
##.PULSE SEQUENCE=1D
##.DELAY=(0.000000,0.000000)
##.FIELD=1.422219  $$ Tesla
##.OBSERVE 90=15.789399
##.ACQUISITION TIME=6.55279983446235
##.ZERO FILL=0
##.AVERAGES=4
##.DIGITISER RES=16
##.SPINNING RATE=0.000000
$$##.PHASE 0=-20.00000000000000
$$##.PHASE 1=79.00000000000000
$$ NMReady specific parameters
##$SCANS=4
##$SCAN DELAY=1.000014
##$TOTAL DURATION=31.338313
##$X_PULSE=14.210050
##$RECVR_GAIN=12
##$SWEEP WIDTH=20.000000
##$RELAXATIONDELAY=1.280964
##$ZEROING=7.000000
##$APODIZATION=0.030000
##$PHASECORRECTION=-20.000000,79.000000
##$PIVOT=0.000000
##$DT=0.000020
##$LOCKOFFSET=2.080000
##$SPECTRALCENTER=5.000000
##$DECIMATION=40
##$LOWESTF2=-322.241537
##$T2NUCLEUS=1H
##$PULSE_AMPLITUDE=17.500000
##$PLOTTYPE=1D
##$INTEGRALS IS MANUAL=False
##$INTEGRALS REFERENCE ENERGY=45133.439025567699
##$EXPERIMENT_SETTING_Apodization=0.03
##$EXPERIMENT_SETTING_Decoupling Mode=Off
##$EXPERIMENT_SETTING_Digital Resolution=0.02 Hz
##$EXPERIMENT_SETTING_Dummy Scans=0
##$EXPERIMENT_SETTING_Dwell Time=0.50 us
##$EXPERIMENT_SETTING_NPoints (Complex)=8192
##$EXPERIMENT_SETTING_Nucleus=1H
##$EXPERIMENT_SETTING_Pulse Angle=80.37, °
##$EXPERIMENT_SETTING_Pulse Width=14.21 us
##$EXPERIMENT_SETTING_Receiver Gain=12.00 dB
##$EXPERIMENT_SETTING_Receiver Gain (dB)=12, Auto
##$EXPERIMENT_SETTING_Scan Delay=1.0 s
##$EXPERIMENT_SETTING_Scans=4
##$EXPERIMENT_SETTING_Solvent=Toluene
##$EXPERIMENT_SETTING_Spectral Center=5.00 ppm
##$EXPERIMENT_SETTING_Spectral Width=20 ppm
##$EXPERIMENT_SETTING_TX Frequency=60.551696 MHz
##$EXPERIMENT_SETTING_Time Per Scan=7.8 sec
##$EXPERIMENT_SETTING_Zero Filling=7
##$RDC_ENABLED=1
##$RDC_TYPE=CONT5PAR
##$RDC_DATA=(0.145553,5.475700,2.437884,0.765625,0.888815)
$$ End of NMReady specific parameters
$$ Bruker specific parameters
$$ --------------------------
##$DATE=1780946274
##$SI= 65536
##$TDeff= 8192
##$SFO1= 60.55169569964014
##$O1= 302.75847849820070
##$SF= 60.55139294116164
##$BF1= 60.55139294116164
##$AQ= 6.55279983446235
##$SWH= 1250.00003157765696
##$SW= 20.64351818945156
##$SR= 0.00000000000000
##$OFFSET= 15.32183570381412
##$FIDRES= 0.15258789447969
##$O1P= 5.00000000000000
##$TD= 16384
##$DW= 399.99998989515007
##$SPECTYP= PROTON
##$NS= 4
##$DS= 0
##$DR= 16
##$DE=1.000014
##$RG=12
##$P1=14.210050
##$P= (0..2)
0.0 14.210050
##$PHC0= 59.50000000000000
##$PHC1= -79.00000000000000
##$PH_mod= 1
##$WDW= 1
##$LB= 0.02999999932945
$$ End of Bruker specific parameters
$$ ---------------------------------
##NPOINTS=8192
##DELTAX=0.0008000000
##NTUPLES=NMR FID
##VAR_NAME=TIME,FID/REAL,FID/IMAG,PAGE NUMBER
##SYMBOL=X,R,I,N
##VAR_TYPE=INDEPENDENT,DEPENDENT,DEPENDENT,PAGE
##VAR_FORM=AFFN,AFFN,AFFN,AFFN
##VAR_DIM=8192,8192,8192,2
##UNITS=SECONDS,ARBITRARY UNITS,ARBITRARY UNITS,
##FIRST=0.000000,1221.670986,360.299640,1
##LAST=6.552800,-0.000004,0.000021,2
##MIN=0.000000,-1135.197996,-913.039122,1
##MAX=6.552800,1221.670986,1022.206683,2
##FACTOR=0.00079999997979030013,0.00000056888505579704,0.00000056888505579704,1
##PAGE=N=1
##DATA TABLE= (X++(R..R)), XYDATA
      0.00000000     2147483000     1414237977     -220605319    -1563890049
      4.00000000    -1995478673    -1416417312     -305976696      715054052
      8.00000000     1200501817     1094335593      576976528       21730240
     12.00000000     -255238417     -243078758     -222430384     -432271107
     16.00000000     -796971877     -903278772     -433406096      504593001
     20.00000000     1372911835     1613400839     1028348331     -101300345
     24.00000000    -1211813481    -1737313212    -1408996440     -393323583
     28.00000000      739271998     1361572634     1195570104      499344308
     32.00000000     -189866343     -479390451     -397420791     -243915750
     36.00000000     -257778701     -413222836     -475674200     -232228172
     40.00000000      306734254      889993225     1147394617      820714603
     44.00000000      -25889957     -966279128    -1449382422    -1162220381
     48.00000000     -265923433      701922745     1192120222     1013750626
     52.00000000      382067136     -260280573     -567496736     -486602610
     56.00000000     -223739428      -50030805      -85968472     -218034922
     60.00000000     -199147512      106109128      568373693      853617963
     64.00000000      670342687       29111496     -731803305    -1146170322
     68.00000000     -946511461     -232664362      577285842     1028169828
     72.00000000      904697200      338868679     -287435715     -614922153
     76.00000000     -533342706     -212503890       51890247       90936807
     80.00000000      -40068370     -116703364       21279180      335687928
     84.00000000      581129512      509731453       66970746     -522704569
     88.00000000     -893144066     -789095135     -233379013      462341223
     92.00000000      893027715      819785441      324607092     -270006524
     96.00000000     -613113612     -560038809     -235109543       87168173
    100.00000000      199845498      103972712      -29788867      -18270184
    104.00000000      166375148      368508747      371261736       85968258
    108.00000000     -358681852     -685223160     -649055915     -226080866
    112.00000000      355870060      750143378      726145133      311650679
    116.00000000     -227678212     -569768813     -553644443     -254405847
    120.00000000       88192700      257093735      195179604       36575315
    124.00000000      -41999387       45613821      208032977      265743807
    128.00000000      100041084     -231260187     -512458964     -526395213
    132.00000000     -214138719      258234131      611365156      623116561
    136.00000000      289909361     -178079730     -503823811     -515415702
    140.00000000     -248284728       86320346      271476203      231729382
    144.00000000       66008029      -49641278      -17971446      114900559
    148.00000000      189589347       93543535     -148397966     -373796888
    152.00000000     -410204179     -187718170      177805938      474636544
    156.00000000      515229491      264056998     -126858533     -423851498
    160.00000000     -456135917     -237211996       67670067      256781029
    164.00000000      244497940       92908376      -45747063      -60777661
    168.00000000       28117504      114464834       86790106      -66798508
    172.00000000     -245682463     -313105262     -178395862       99321141
    176.00000000      358554436      427825614      248186807      -76793719
    180.00000000     -344394290     -398626344     -225323037       40994217
    184.00000000      225504724      238788848      116891275      -30864647
    188.00000000      -88008092      -36262871       55561684       83591508
    192.00000000       -1219099     -151387659     -244212166     -177492265
    196.00000000       40538583      275252766      360533284      231041093
    200.00000000      -43867271     -283774641     -347927478     -214193797
    204.00000000       20351853      201073267      231747120      123693623
    208.00000000      -26483129     -103855301      -67049954       27088736
    212.00000000       75642334       23637246      -99817555     -186835185
    216.00000000     -145875855       19447389      208132180      289206574
    220.00000000      196727678      -20575066     -227116592     -300584594
    224.00000000     -200445654        1785183      177142121      224081292
    228.00000000      134168816       -9130558     -101245466      -89665783
    232.00000000       -7883889       54690926       32986983      -56789548
    236.00000000     -131155339     -116669451        3295722      154977818
    240.00000000      232120786      172061742       -3027507     -187934161
    244.00000000     -264451385     -188327220       -6936084      160009438
    248.00000000      218054100      141156705        3509167      -99081563
    252.00000000     -107297406      -39141413       33082652       41896397
    256.00000000      -15845151      -84851646      -89687692      -11866716
    260.00000000      110031313      183968448      148079244       10254218
    264.00000000     -147599598     -224213364     -170301257      -17591188
    268.00000000      135839949      196119028      141066515       13385368
    272.00000000      -92192726     -114439414      -58807578       17282568
    276.00000000       47823978       13230013      -49329905      -71763010
    280.00000000      -21768578       73429052      139997320      123168629
    284.00000000       18318634     -113581119     -183016492     -150889881
    288.00000000      -26660116      111293357      175411208      131645284
    292.00000000       20392666      -85365244     -114322101      -65690324
    296.00000000        9965038       50292636       32636106      -18418157
    300.00000000      -47269772      -27435667       34740544       95018796
    304.00000000       98438587       26426845      -77310791     -146892712
    308.00000000     -127853000      -25808401       91782738      151316530
    312.00000000      116607842       18295002      -75601715     -110821736
    316.00000000      -76800106       -4574972       51472225       55310228
    320.00000000       13395552      -32691130      -38127842        4316820
    324.00000000       62481083       77041438       27398489      -56749072
    328.00000000     -113042300     -101355049      -22448943       72482972
    332.00000000      123712881      103271257       21985066      -70423202
    336.00000000     -112424421      -83209085       -6882290       61200490
    340.00000000       72424618       29994788      -25006450      -41925851
    344.00000000       -9497243       34752457       51942456       23398849
    348.00000000      -33734563      -78314625      -77465526      -23787691
    352.00000000       56039663      109411720       93543578       21946888
    356.00000000      -66706316     -106039446      -81116159       -5675886
    360.00000000       57206009       71797613       36751662      -10039080
    364.00000000      -34714972      -25534652        7787854       34156248
    368.00000000       25836460      -12926255      -54971830      -65368787
    372.00000000      -23759050       42016915       88981716       78959659
    376.00000000       18712495      -53786795      -89286334      -70805745
    380.00000000      -14238213       44280717       66990257       48183122
    384.00000000        1108120      -35909344      -37636086       -7422071
    388.00000000       26280891       28057185         271643      -39033341
    392.00000000      -50995073      -22558067       29175291       68356364
    396.00000000       67576302       21008648      -42278254      -78119996
    400.00000000      -65756698      -16814815       39687126       66801123
    404.00000000       48994359        2020634      -35219537      -38949077
    408.00000000      -15932816       17548289       27613658        5194692
    412.00000000      -23177162      -38019507      -21298639       18554675
    416.00000000       52505501       56386989       19439637      -31222438
    420.00000000      -65236188      -59406049      -15450585       34974354
    424.00000000       61210506       46332107        5867179      -31004925
    428.00000000      -39963803      -17797462       11548000       25865417
    432.00000000       15136049      -11117345      -30063842      -21822812
    436.00000000        6584289       37712257       47008856       20599442
    440.00000000      -21392741      -53251983      -52570616      -16616693
    444.00000000       28483057       53637641       45571324       11430312
    448.00000000      -26275875      -39687295      -22284076        6982385
    452.00000000       23823064       19939609       -3593326      -24115356
    456.00000000      -23687865         368866       28763037       38926050
    460.00000000       20386697      -15108855      -42792767      -43134410
    464.00000000      -15935331       20682796       47835392       41901326
    468.00000000        8297240      -27609618      -38452580      -24583400
    472.00000000        3114782       24528816       21932066        5269139
    476.00000000      -16532212      -21378642       -5775009       18557565
    480.00000000       31315731       20833977      -10029449      -37351295
    484.00000000      -37871982      -16457969       19899386       40060617
    488.00000000       36978143       10830822      -21561798      -35818983
    492.00000000      -25456624           7421       23530915       24474527
    496.00000000        8666920      -13507359      -20035793      -10980264
    500.00000000       11873690       24388150       16542148       -5700117
    504.00000000      -28432152      -32658536      -14696524       13905844
    508.00000000       36414523       36449851        8459759      -18095427
    512.00000000      -34825498      -29691770       -2579194       19172723
    516.00000000       25468567       13891745       -6134027      -16737229
    520.00000000      -12442617        4223538       19251991       15397731
    524.00000000       -3317310      -20416299      -28280962      -12942938
    528.00000000       13225589       30607071       30484430       11009276
    532.00000000      -15048622      -31697099      -28849103       -7065417
    536.00000000       16318442       25759910       14956242       -1237788
    540.00000000      -14321800      -13406433        1682433       12266697
    544.00000000       11884232        -127971      -13228544      -20421141
    548.00000000      -10634305        7332747       23537066       27261141
    552.00000000       12865929      -12948980      -30605509      -25771179
    556.00000000       -7483442       13664085       25220304       17452230
    560.00000000        1232436      -12354186      -13221826       -3712957
    564.00000000        8515937        9410354        5952053       -8099905
    568.00000000      -16974452       -9616602        5046177       20186180
    572.00000000       21858755        6872769      -12695717      -24934993
    576.00000000      -21744156       -6291251       12906933       21487746
    580.00000000       18809620        2326489       -9688432      -16920184
    584.00000000       -9040816        3715096       11771923        7158893
    588.00000000       -3676135      -12416251       -9754125        4342593
    592.00000000       14091913       16727253        8569339       -9254832
    596.00000000      -22329977      -21345256       -7365649       10367180
    600.00000000       21587736       18235326        4031555      -10780990
    604.00000000      -15565499       -8904809        -248623        8288308
    608.00000000        8490591        -184893       -8808393       -7858595
    612.00000000       -1001997        9701477       13539561        8215692
    616.00000000       -4276889      -16935210      -16671106       -7811806
    620.00000000        6847928       17561217       16250397        5437316
    624.00000000       -5413772      -12090922      -11735783       -1138463
    628.00000000        5623838        7114796         923729       -5732639
    632.00000000       -8657227       -1681341        4945450       11474893
    636.00000000        7271321       -2275096      -12766641      -15111366
    640.00000000       -6216122        6017356       12483256       14075736
    644.00000000        5940342       -3906807      -11910929      -10606044
    648.00000000       -3180997        6715815        7525725        5520867
    652.00000000       -4439131       -5651969       -2106486        5071230
    656.00000000        8769661        7764325       -1772996       -8363177
    660.00000000      -12505964       -6111058        2491762       13240860
    664.00000000       12044030        7645374       -2975353      -11417075
    668.00000000      -11731362       -4750132        4655523        7269791
    672.00000000        6911789         396694       -5032964       -2211769
    676.00000000         840569        5712595        6145953         354990
    680.00000000       -5850296      -10290162       -6319808         201670
    684.00000000       10266505       11637077        8067864       -2648891
    688.00000000       -8041886       -9940153       -4963702        1374025
    692.00000000        6103532        6462183         738028       -1045580
    696.00000000       -4066995        -346029        3578067        4877660
    700.00000000         778610       -3105307       -7401195       -5869855
    704.00000000        1669117        6566787        9542264        7059597
    708.00000000       -1276070       -7677369       -8278904       -6116927
    712.00000000         465911        5991902        6306433        2310943
    716.00000000       -1188948       -3067791       -2604859        1633011
    720.00000000        3682240        1385469       -2721172       -5673676
    724.00000000       -5078547        -703151        5307745        9264092
    728.00000000        7132031        1760308       -4827842       -7683648
    732.00000000       -6559144        1619590        5677357        7433904
    736.00000000        4207033       -1380602       -2749479       -3159342
    740.00000000         846178        1518552        1071771       -1019800
    744.00000000       -3618749       -3534354       -1138406        4128345
    748.00000000        7868919        5829382        -171894       -5200334
    752.00000000       -6884991       -5185212        -649352        4034804
    756.00000000        7217531        4323381         425811       -2575659
    760.00000000       -4542669       -2329807        2384052         676532
    764.00000000        -165677       -1805405       -2811806        -582101
    768.00000000        2990396        4939011        2995282         257020
    772.00000000       -2477201       -7076534       -4415533        -938149
    776.00000000        4672446        5815559        4047409          16499
    780.00000000       -1863809       -4154038       -2812398         483154
    784.00000000        2810468        3257544         854151       -2618737
    788.00000000       -1954789        1671580        4582484        3564435
    792.00000000        2389096       -2110982       -4592645       -5301005
    796.00000000       -1811222        3529511        7274365        4310587
    800.00000000         192730       -1665372       -4415117       -3492777
    804.00000000        1495632         769158        3687490        -735335
    808.00000000         118218       -1754771         445881         845428
    812.00000000        1638743         107404       -1672389       -4059034
    816.00000000       -4339413       -2575205        2418462        4436565
    820.00000000        5637773        1671130        -754149       -4190897
    824.00000000       -4345188       -2745871        1640268        3055404
    828.00000000         319966         594425       -1500104        -619725
    832.00000000           1434         122517        1348650       -2026973
    836.00000000       -2350280       -3143289       -1661808        1026474
    840.00000000        3920154        3851172        2533295       -1493818
    844.00000000       -3019626       -4538924       -1910589         354658
    848.00000000        3768442        3544404        1934076         837022
    852.00000000       -2155207       -2395234        -729170        1437548
    856.00000000         345975       -1900223       -2395478       -1367146
    860.00000000         882387        2599512        2489077        1509622
    864.00000000         166468       -3615327       -4027736       -3014036
    868.00000000         770069        4047995        2326187        2419422
    872.00000000        -567185        -961774       -1713537        -905484
    876.00000000        -137451         589073         753904       -1433683
    880.00000000        1182144        1111057        1925131        2274062
    884.00000000        1775297        -219884       -2462891       -4140403
    888.00000000       -1609047         562845        4461004        4334421
    892.00000000        2481618        -592960       -2264443       -4916108
    896.00000000       -1671613        -224601         623128         896299
    900.00000000        1473501         704486          69566        1728441
    904.00000000        1278690        1359662       -1034699       -2134210
    908.00000000       -2981726       -2996286        1065353        2116184
    912.00000000        4063903        2190414        2038367       -2156930
    916.00000000       -2676537       -2373463        -764676         931990
    920.00000000        1181105        1495086        1438833        -222833
    924.00000000        -218974        -737564          71755         231082
    928.00000000       -1871422       -1964669       -1482363         959639
    932.00000000        3314138        1985203        2137632         794604
    936.00000000       -1764887       -3427080       -2649077       -1051900
    940.00000000        1740975        2449843        2196389         388663
    944.00000000        -638288       -1246188        -982291        1224640
    948.00000000        1014333        -832047       -1062105        -279199
    952.00000000         717809        2045868        1869226        1516317
    956.00000000          70367       -1523901       -2136172       -3187790
    960.00000000        -199926        1447678        2037112        2222056
    964.00000000         174515        -207283       -1415453        -904281
    968.00000000       -1007230        -225688         239287       -1198524
    972.00000000          42060         -17442        1162915        2073270
    976.00000000        1385538        -571999        -508710       -1709148
    980.00000000       -1673178        -428511         -94162        2699158
    984.00000000        1612019        1081500       -1206884       -2021795
    988.00000000        -486671       -1587831        1040101        -638391
    992.00000000         225576         200678         456591        -189693
    996.00000000         773760         952028        -222378       -1694460
   1000.00000000       -1584748        -725396        -108657        1161271
   1004.00000000        2808617        2916145        1077684       -2243991
   1008.00000000       -2051192       -3251833        -511065         934247
   1012.00000000        1699012         880798         907746         899990
   1016.00000000         148811         161349        -257111         146128
   1020.00000000       -1303055       -2386038       -2026999        -603431
   1024.00000000         642676        2195918        1977090         589089
   1028.00000000        -236849       -2513376       -1640955          10804
   1032.00000000         385502         775436        1524937         989404
   1036.00000000         348379       -1423520       -1186300        -349116
   1040.00000000        -571535        -589439       -1047859        -528412
   1044.00000000         -18909         486010        2297594        1983853
   1048.00000000         814444       -1038785       -2088808       -1158430
   1052.00000000        -891921        1319489         488849         942737
   1056.00000000         725768        -752206        -389258        -794838
   1060.00000000        -757383       -1016789         298231        1558379
   1064.00000000        -438092         -21803        -341025         958566
   1068.00000000        1154129         421030        -759809       -1084842
   1072.00000000       -1273742       -2320057        -490799        2072831
   1076.00000000        1390281        1176861        -225814        -398418
   1080.00000000       -1078182        -366507        -792382         148929
   1084.00000000        -370714        1130870         207227         607903
   1088.00000000        1810266        1376113         109727       -1206752
   1092.00000000       -1663152       -1139487         -60284         452245
   1096.00000000        1282655        2067258         577038        -445879
   1100.00000000       -1372536       -2136534       -1076497        -840516
   1104.00000000        -293787         732511        -562849        1150349
   1108.00000000         598043        1207125        2237574        -219064
   1112.00000000        -579386       -2013004       -1332280         315466
   1116.00000000        1237438        1407805         648296        -449934
   1120.00000000         539156        -413274       -1832452       -1214951
   1124.00000000         215412        -470142        -151567        -933506
   1128.00000000         941314         939010         188693        1087731
   1132.00000000           3442        -286293       -1385670       -1442100
   1136.00000000        -197892         928764        1263751        1415913
   1140.00000000         470287         445447        -680020       -2007453
   1144.00000000        -750448        -355410         331567         139242
   1148.00000000         -35071        -142955         388265        -577400
   1152.00000000         550388        -456865        -353438       -1633816
   1156.00000000        -485423        -609724         865619         623767
   1160.00000000         693062         827795        -129561        -432898
   1164.00000000       -1154540       -1473386        -924819         217195
   1168.00000000         333732         434384         524944         638734
   1172.00000000         807727         376224        -194807        -691957
   1176.00000000        -639991         -28677         390166         243145
   1180.00000000        1336378        -188107         844654        -914378
   1184.00000000         -58242       -1255923         -33116        -485240
   1188.00000000         677758         335709         939921         322958
   1192.00000000        -130402        -335183        -715930        -446206
   1196.00000000       -1208408        -231374        -354678        -399029
   1200.00000000        -475174         340284        1735944         241618
   1204.00000000          11178         180232       -1277941        -922013
   1208.00000000        -451073         623007         422944         422739
   1212.00000000         610768        -726344        -580961        -818175
   1216.00000000        -358075       -1453035         190476          85723
   1220.00000000        -171203         771143        1247700         401255
   1224.00000000         902799        -884192        -978904         -84737
   1228.00000000        -140547         434977        1092355        1043651
   1232.00000000         801639        1228000         -88738          32691
   1236.00000000        -376617         261506          53068        -275504
   1240.00000000        -270037        -563520        1236068         628657
   1244.00000000         224880         957990         310861       -1325226
   1248.00000000        -748533        -136235         266173        1228575
   1252.00000000         821816         346865         -90193        1122422
   1256.00000000         343538        -224731         -93014          89172
   1260.00000000        -491299         292226         687282         496296
   1264.00000000        1186641         -72721        -576090        -445089
   1268.00000000       -1013433        -820550        -733623         -57683
   1272.00000000        -740511         344152         588888         252511
   1276.00000000         324545        -881618        -485915         632273
   1280.00000000         938738         962748        -201627         364126
   1284.00000000          32531         443432         237894         668311
   1288.00000000       -1195225       -1073918        -998310         -77860
   1292.00000000         482570        -141298        1001340        1315246
   1296.00000000         186978       -1051703         -33644        -548808
   1300.00000000         487553         572716          -7064         357330
   1304.00000000         585979         522869        -304367         559708
   1308.00000000        -798246        -111405        -699762        -394683
   1312.00000000         310742         -87856         155167         698349
   1316.00000000         750214         100444       -1241117        -455938
   1320.00000000        -926732          28353         130532        -396872
   1324.00000000         -54030         510807         170917        -106236
   1328.00000000           -672        -604695        -767141        -352483
   1332.00000000        -731421         380887         774353         808187
   1336.00000000        1353340        -347213         310004        -719905
   1340.00000000        -683124        -184964         472353       -1075178
   1344.00000000         363666         528509         503357         985899
   1348.00000000        -121435        -149730          -3327        -951942
   1352.00000000        -288274       -1296387        -460550         438564
   1356.00000000         876029         705958         925373        -330007
   1360.00000000          50046        -499518        -729418        -459035
   1364.00000000          71621           2142          19990         418659
   1368.00000000         609680        -405692         463485        -399405
   1372.00000000        -220606        -906497        -599898        -496945
   1376.00000000         155529         824222        -114483          -8149
   1380.00000000        -119508       -1746928        -410627        -813009
   1384.00000000         -90640        -590253         285157         616161
   1388.00000000         326700        -124153          13124         208876
   1392.00000000        -321720        -886993        -161109        -481940
   1396.00000000         266628          31204         111155         788147
   1400.00000000         203366        -221583         -56013        -636531
   1404.00000000         326749         141191        -177766         955672
   1408.00000000           4623         257619         798483        -151929
   1412.00000000        -194744         -17157        -232915         -89886
   1416.00000000          56770          56525         322646         517733
   1420.00000000         -13632        -225335         -49937        -486687
   1424.00000000        -900898         105698        -282552        -436610
   1428.00000000        -138997        -705622        -367771         567486
   1432.00000000        -150994        -123021        -151579        -517300
   1436.00000000         -57500          65696          71135         363938
   1440.00000000         175342         -28674        -751519        -436629
   1444.00000000        -155541        -290085        -302041        -235752
   1448.00000000         432866        -345816         372753        -169640
   1452.00000000         -55466         204873        -199173        -296511
   1456.00000000        -120928        -445103        -279867         479708
   1460.00000000         115151         572058         421898         305242
   1464.00000000        -337486        -424987        -494410          22517
   1468.00000000         225863        -341317         -86499         202553
   1472.00000000         171470        -523754        -573272        -255327
   1476.00000000         -91229        -189833         205245        -438740
   1480.00000000         484685         250872        -493815        -499707
   1484.00000000        -212524         -54323        -353981         -84950
   1488.00000000         161604          22862         460271          61726
   1492.00000000        -285690         352761        -317638          28357
   1496.00000000          93473        -119871          46599        -307776
   1500.00000000         537011         345018         514700          86249
   1504.00000000        -439658        -439582        -609546       -1256937
   1508.00000000         244500        -127413         792682         424367
   1512.00000000         333171        -454497        -594858        -618141
   1516.00000000        -713058        -626201        -603969         334384
   1520.00000000          52322         968834         262637         248038
   1524.00000000          -2302         197939        -526830        -665787
   1528.00000000        -141507        -303631         456846         152268
   1532.00000000         593521        1078675        -166179          12539
   1536.00000000        -237397         -63366        -159398         206664
   1540.00000000        -289943         437770        -194705         790174
   1544.00000000        -153599         498583        -492510        -241630
   1548.00000000        -239297        -218853         -92047         451601
   1552.00000000         714128          31749         334921          37966
   1556.00000000          94642        -262524          -7856        -975644
   1560.00000000         218817          75738         106061         -52254
   1564.00000000         367750         -64988          70661          32006
   1568.00000000        -227759        -190532        -395883        -247037
   1572.00000000         551516         419166         432825        -172878
   1576.00000000          16085         360671        -751689         218100
   1580.00000000        -266743          -5043         313131           1443
   1584.00000000         262365         -80445          88661         -81379
   1588.00000000        -247712        -603978        -265490         280117
   1592.00000000          36543         404261         408513        -504975
   1596.00000000          58036         -45053         -99571          94441
   1600.00000000        -379750         191098         492609         126294
   1604.00000000         974118        -556733        -160317         469705
   1608.00000000        -117032        -711021        -546271        -661696
   1612.00000000         372858         421675         247533         141548
   1616.00000000         220029          27630        -726281        -102697
   1620.00000000        -684920        -240845         400712         128164
   1624.00000000         753116         739662         631340         357985
   1628.00000000        -709756        -183604        -646148        -251176
   1632.00000000         -28164        -259169         -38099         301668
   1636.00000000         100795         246226          77010        -383527
   1640.00000000         136692        -331934          37107         133096
   1644.00000000          75923        -269152         679442        -697674
   1648.00000000         344682           6461         -75405         -73288
   1652.00000000        -361832        -290447        -113777         501499
   1656.00000000         328586         653970        -105152         173714
   1660.00000000        -221422        -390926          90150         558982
   1664.00000000         -19454          27744          61282         586664
   1668.00000000         278423        -197341           7689        -413653
   1672.00000000        -224446         369086         118686         -50382
   1676.00000000        -215669         559771         135190         -54015
   1680.00000000         -81562          -8244        -677595        -550031
   1684.00000000          37738         -56757          50874        -219937
   1688.00000000         107825        -192849        -152714         249851
   1692.00000000         -54024        -360368        -295069        -132649
   1696.00000000         120690          41583         248905        -376138
   1700.00000000          79208        -535563         -39819        -372904
   1704.00000000        -205922         310859          83610         211039
   1708.00000000         598623         163976          -7975        -146015
   1712.00000000          -2893         -37220         177682        -106370
   1716.00000000         154749         348455         376842         328029
   1720.00000000        -655546          53226         109533         102070
   1724.00000000          44252         210675          93944         223424
   1728.00000000        -474701          80444         -56287        -429977
   1732.00000000        -184968        -727242         -33331         237712
   1736.00000000        -187058        -144558         220770         -49554
   1740.00000000         118052         143585        -267615         -35457
   1744.00000000         173925         140515         391387         202027
   1748.00000000        -324524         684325        -460243          43709
   1752.00000000        -345165        -188727         -66178        -199679
   1756.00000000        -217474         385108        -133942         184450
   1760.00000000          27598          10873        -269823        -423110
   1764.00000000        -246485        -125578        -148051        -145266
   1768.00000000         398578         208907          10099        -233135
   1772.00000000           6653        -254536        -396016        -134002
   1776.00000000         -27036         518626        -175732         276906
   1780.00000000         410846         332676        -278733        -178015
   1784.00000000        -217904         -49431         -23693         -28008
   1788.00000000        -190218         197625         258261          99194
   1792.00000000        -153916        -493859         -80690        -106724
   1796.00000000        -179789         465618         235815          -8811
   1800.00000000         109084        -166551         -87602        -205640
   1804.00000000         243515          92876         136678         135715
   1808.00000000        -448112         103902         218144          75643
   1812.00000000         251976        -236283        -418138        -309187
   1816.00000000        -126366          12305         412469          66308
   1820.00000000         493950        -178549        -502161          65034
   1824.00000000        -516863           3874          -2067          63708
   1828.00000000         330299        -360428          99416        -203801
   1832.00000000         -55533         194690          24454        -207871
   1836.00000000        -520529         -63689        -117245         158641
   1840.00000000          43641         564911         310541        -406595
   1844.00000000        -481211          59563        -121142         -82096
   1848.00000000         -58378         -66577           9274         197922
   1852.00000000          79010         -12081         207901        -191272
   1856.00000000          97673        -376111        -424158         318417
   1860.00000000        -273130        -276310         320436         207056
   1864.00000000         506289        -137916         128399         112730
   1868.00000000        -760217         146403          42562          36976
   1872.00000000         216610          56137        -215418          20380
   1876.00000000        -325352        -188019        -407618        -414616
   1880.00000000         182644         172566        -412550          -7306
   1884.00000000         207782         265187        -223333        -169595
   1888.00000000         -49346         206444          81359          65144
   1892.00000000         106741         -16431         308150         -29786
   1896.00000000         141157         -51940        -699730        -773990
   1900.00000000         -38669        -410483         163028        -370810
   1904.00000000        -151736         134786         221990        -516597
   1908.00000000         -88836          17041          91791          48254
   1912.00000000          29075        -278844         104163         111746
   1916.00000000        -361388        -101896        -189518         -29136
   1920.00000000        -210139         -87377         123649        -212171
   1924.00000000         298511         180680          44262        -136771
   1928.00000000          37611          99411         -91553         192467
   1932.00000000         211624         -28226        -314385         162945
   1936.00000000          32217          -3309          30618        -379645
   1940.00000000         -43246        -105877        -207493        -151649
   1944.00000000         525363         492898         337617         394836
   1948.00000000         -27057         -48534        -329441         118009
   1952.00000000        -195815         156799         355382        -364713
   1956.00000000         238941          72246         109808        -154270
   1960.00000000         157988         103767        -192211        -273924
   1964.00000000         150762          91725         301304          86133
   1968.00000000         157108          71972        -162111        -231464
   1972.00000000         163723        -114900          16016        -357060
   1976.00000000         208945        -213660         195356        -182404
   1980.00000000        -253705          45679           9847         -67157
   1984.00000000         105282          68871         -50737        -193446
   1988.00000000          45056          46899        -244471         137985
   1992.00000000        -146906        -131382         -54389         -21045
   1996.00000000          47482        -284258         222590         -65868
   2000.00000000          66876         -58556         -75218        -101690
   2004.00000000          46581         -17983         108309        -473064
   2008.00000000        -171457         269910          22943        -216172
   2012.00000000        -354244        -206121        -170280         167756
   2016.00000000          70351         271076        -380359        -226634
   2020.00000000         135723         211879          -6274          98397
   2024.00000000         -58812         -28252         -78867          29737
   2028.00000000         -40347           5312         118842          81496
   2032.00000000        -365833          49448         -13808        -133238
   2036.00000000        -189944        -365658         240593          16132
   2040.00000000          23304         350898         256690         -57454
   2044.00000000         223139         -39234          -8406        -142752
   2048.00000000         -24616         396102         -83819         502079
   2052.00000000         215307        -223721         114993          22499
   2056.00000000        -123247         -50306          41079        -208543
   2060.00000000        -176942        -233383        -305556         296880
   2064.00000000         202848        -290235           7852         -66415
   2068.00000000         -35616          86222          62052         162113
   2072.00000000         189057         -56938         172357          16888
   2076.00000000          28025        -122389          74483        -387750
   2080.00000000         -67687        -227856          68427         111828
   2084.00000000         228219         -36734         -40729         -51573
   2088.00000000         -10420          -1112         157686        -241004
   2092.00000000         181163        -204532         505082          22076
   2096.00000000          83721         -40271          46513         -40728
   2100.00000000         -32366        -164965        -102165        -434232
   2104.00000000          77730          93623        -206436         -39438
   2108.00000000          30465        -157823        -148591        -102410
   2112.00000000         -85600        -162505         -83339        -110355
   2116.00000000         -64247        -152865         205631        -322597
   2120.00000000         -48030        -214142        -179926         432373
   2124.00000000         -36084          21976         251448        -179013
   2128.00000000          70823         -14561         -27305        -204855
   2132.00000000        -281688        -224780          79894           2645
   2136.00000000         -34894          86747         -41109        -122794
   2140.00000000        -117761          58474          25184          27420
   2144.00000000        -131048        -333401         -89983          50706
   2148.00000000        -197703         199043         168977        -194978
   2152.00000000          61791        -308046          14124        -228142
   2156.00000000        -112196         142571         -78363         318127
   2160.00000000        -107943            637        -146941         108926
   2164.00000000        -170425         -97851         -41370        -155035
   2168.00000000         111799         -36342          -9486         138304
   2172.00000000         -99008        -238005        -217602         222856
   2176.00000000         -32666        -365550         -50511         -24187
   2180.00000000         129437          30234         -78313        -175492
   2184.00000000        -214748         245730          23098         -34185
   2188.00000000          53144         257063         198333         -49996
   2192.00000000          68131         155165          75516          29790
   2196.00000000        -182888         147246          89895        -143187
   2200.00000000          91788         253640         165642         -54114
   2204.00000000         204968          37380          83804        -112319
   2208.00000000        -178825         325045          71954         194344
   2212.00000000        -121635        -130338         249117         100386
   2216.00000000         -25342        -147944          79130         -87714
   2220.00000000        -151353          71050         106407        -167783
   2224.00000000         -49178         -83661         252730         -31028
   2228.00000000         281687         -30681         345130         -64874
   2232.00000000         -70076          10946        -177531        -362625
   2236.00000000         -27367          24093         -21562        -213038
   2240.00000000         133902         -70737          -9274        -217993
   2244.00000000          -9672        -136961         -47126          23293
   2248.00000000        -126928         -64983        -112469        -333780
   2252.00000000          42828         -43302          83836          38215
   2256.00000000        -222293        -241332          98809         279872
   2260.00000000        -293248         204093         183266         340960
   2264.00000000         -45135        -265614          -4996          58722
   2268.00000000          17966          95568         295069         104016
   2272.00000000         103118         130350          43492         -43124
   2276.00000000          16075         -10118        -146897          64954
   2280.00000000         212564         -60260         -89900        -141862
   2284.00000000         105497          98269         153737        -103686
   2288.00000000          84475         192968         -88090         -74266
   2292.00000000        -164788        -138875         -83572           1700
   2296.00000000         -90033         -41629          94890         115591
   2300.00000000         111967          36794        -190150         -13761
   2304.00000000         107844         119470        -203887         236565
   2308.00000000        -122821         217953          -3663          71536
   2312.00000000          79996        -148495         -94891          99798
   2316.00000000        -113437         -26912        -170011         121746
   2320.00000000         -54144          62759         142583        -152495
   2324.00000000         -14187        -277471         132159         -30434
   2328.00000000        -125780         -54285          18893         -63910
   2332.00000000         -93427          95766        -148182        -117301
   2336.00000000          88428         189466         -59916         196297
   2340.00000000          55935        -107097         -75136         -26248
   2344.00000000         125025         121709          79455        -226012
   2348.00000000         -91554          27862        -157462          59369
   2352.00000000         -59777          65263          40673          78769
   2356.00000000         188123        -176667        -114888          97520
   2360.00000000          43023         -37300         -26464         158356
   2364.00000000          67174        -222676         -77722        -101934
   2368.00000000        -198915         -37051         -42182          49537
   2372.00000000          46975         -80931         191798         -51744
   2376.00000000         -80825          90761          51823        -154352
   2380.00000000        -112311          54342          80066        -178433
   2384.00000000         -44329         -37585         -40776         -71570
   2388.00000000        -290775         -21387          13525          62304
   2392.00000000         -30256        -171869          52341         151540
   2396.00000000        -197704         105902         -48952          54235
   2400.00000000          74336         -48214          66649         -91416
   2404.00000000         135180        -191251          96705         145901
   2408.00000000        -212316          -7662        -137096         122049
   2412.00000000        -137020        -113560         -71560           8367
   2416.00000000         -40632         -12923         117247         -56607
   2420.00000000         -76567         -79408        -206245         -46187
   2424.00000000          83648        -135364         -74405         -24681
   2428.00000000         132046          61220        -196305         140103
   2432.00000000         -64623         -15922         -47742          13704
   2436.00000000         235019         131677         -30081        -153230
   2440.00000000        -196957          55370        -171007        -320205
   2444.00000000          -3636          85301         -92133        -201153
   2448.00000000          -7150        -129026          15320        -188975
   2452.00000000         -22219         143190         -98168           3421
   2456.00000000          25877         -32538          87781        -234640
   2460.00000000         -86199        -131016           5511        -133122
   2464.00000000         172560         143666          77931         -43514
   2468.00000000          46004          -5700        -222752          -9096
   2472.00000000          -4849          71758         148622        -112418
   2476.00000000          89546          12878          85793          13893
   2480.00000000        -120225        -129907         -99633        -114334
   2484.00000000          59904          46482         -21382         -27544
   2488.00000000          34072         182828           9957         125737
   2492.00000000          68522          -4577         -69983          99756
   2496.00000000        -222132         -55427        -135944         -41610
   2500.00000000          75577          46323         -79944        -104861
   2504.00000000          37514        -112157         -34933         -64966
   2508.00000000         146106        -210850        -100891        -114708
   2512.00000000         -35647          -6287         -24460        -108019
   2516.00000000         -23854          64322          18091          18188
   2520.00000000          37674         129926          -5626          73152
   2524.00000000        -109967         -71672         -55928           8232
   2528.00000000        -100925        -131088          84238         -57904
   2532.00000000         -59622          29557        -231806         -11372
   2536.00000000         -29530          48869            513          43823
   2540.00000000           2022           8997           1560          46518
   2544.00000000         104702         -18802        -164031          96876
   2548.00000000        -105906          48210          18088         -13028
   2552.00000000         -40907         -25756           6829        -189897
   2556.00000000        -149574         -27531        -190177           5790
   2560.00000000          89236         105890          55134         -90889
   2564.00000000         -34125         -24186          82893         -53356
   2568.00000000         -80057         -51791          53566          17247
   2572.00000000         -23628          11551           1574        -116732
   2576.00000000          92027         -22003        -124832        -125447
   2580.00000000          27582          80816         -39061          12822
   2584.00000000          66076        -184382         -47213         105168
   2588.00000000         -53507          26041         -19570        -108290
   2592.00000000          31356         -59407          13440         -39460
   2596.00000000         -47709           9953         -48920          85924
   2600.00000000         -23069         111495         -34674           5038
   2604.00000000         -22007        -179853         -27205        -141538
   2608.00000000          22764          58625          69365         139246
   2612.00000000        -153501          24005         -20155         -77735
   2616.00000000        -113916          45992         -54853           4393
   2620.00000000          93674          34406        -134156         -76236
   2624.00000000         -61946        -185933         -51603          50299
   2628.00000000          34330            678         -48461           3463
   2632.00000000         -43771         -49977        -109674          -3759
   2636.00000000          58396        -158523        -205411          40673
   2640.00000000         120122         -53620          79999          47998
   2644.00000000         -47007          42934         -52367         -53021
   2648.00000000         -10290          27345         -18826         -39838
   2652.00000000         171083           2062          49844         -32393
   2656.00000000           1142         -21492          17106         156680
   2660.00000000          72269          68540         -52450          86977
   2664.00000000          36374        -102457          21620         -81587
   2668.00000000         -89779         -90586        -144872          -7782
   2672.00000000           2936        -198608         -54984         -55644
   2676.00000000        -107966         -29624          40433         -53091
   2680.00000000           9813          -7313         -54343         -95860
   2684.00000000            175          64525          43510        -239530
   2688.00000000        -161035         151624          83446         -73002
   2692.00000000          94593          87150          78078          -5076
   2696.00000000         -11977          14562         111161           1838
   2700.00000000        -223946          46919          -1417         -70649
   2704.00000000         -68908         -42950         -84295         -39208
   2708.00000000          98199           7487          15196         -23194
   2712.00000000         -16428         -58724          50764          68473
   2716.00000000        -180264         -89035         -17494          60074
   2720.00000000         -18871         -74273          76122          45138
   2724.00000000         -48957          -4227         -46848         196180
   2728.00000000            131           6744        -191707         -90697
   2732.00000000         -11716         -58608          14903          54751
   2736.00000000         -99462         -15294          -3176         -66209
   2740.00000000         -59687         -68364         -49769        -142266
   2744.00000000         -91942          17110          -5411          60042
   2748.00000000        -137478         -53343          40388        -122094
   2752.00000000           1802         -68972          41595         -38440
   2756.00000000        -120444         -25548        -159829         -54487
   2760.00000000          -7455           6955          39126         -43513
   2764.00000000           8857          18549         -73222          22756
   2768.00000000         -22321         -86643         -35476          57709
   2772.00000000          38248        -128996         -99566         -11643
   2776.00000000         -86940         114699         -64103         -88225
   2780.00000000         -12190          66969          49610         -77472
   2784.00000000         -68391         -91575          33760         -68215
   2788.00000000          28668           9980         113124         -22132
   2792.00000000        -108295           6266         -53362         -46931
   2796.00000000        -183837          21010         152849          -1185
   2800.00000000           9494          88526         -28011         -88798
   2804.00000000           8675         -69463         -90044         -45380
   2808.00000000            133          13493          46365         -34867
   2812.00000000          48215         -32585          52329         -10341
   2816.00000000          35275           3680          43706         -54842
   2820.00000000          52058         -41376         -35107          81589
   2824.00000000         -49225          81294         -79295          14586
   2828.00000000         -28347         -77679           -745         -36157
   2832.00000000         -21672         -91665         -17187        -103049
   2836.00000000         -37423          46923         -33266          50799
   2840.00000000           7749          64120          -3949          36977
   2844.00000000          13321           9257          47963         -10716
   2848.00000000        -134629          -3895          47929          32298
   2852.00000000          42525         -56568          25412          48194
   2856.00000000          38670          40078          45466         -29486
   2860.00000000         -66017         -37241         106673          12599
   2864.00000000          80631          13590         -85062        -105173
   2868.00000000          -1179         -95927         -36374         -49382
   2872.00000000          25291          27082          45805          -3220
   2876.00000000          17631           8342         104373          28825
   2880.00000000         -66564         -25988         -52804         -25146
   2884.00000000           1119          44178          27963          10757
   2888.00000000          35405           2049         -65851          62258
   2892.00000000          36761          18858           7814           9523
   2896.00000000         -25093          72685         -17785          27112
   2900.00000000         -32122          36482         -68698         -66151
   2904.00000000          20733         -25299         -47779         -21402
   2908.00000000          -7677          -8877          16226          38440
   2912.00000000         -16790          82489          16125         129197
   2916.00000000         -34582          40110         -70202         -77369
   2920.00000000         -85117         -49998          52434         -38227
   2924.00000000        -118884           3188          -5508          39669
   2928.00000000         -85431          75451          64496         -25068
   2932.00000000          30430          73246         -27458          -9049
   2936.00000000         -40781          63133          20777         -19265
   2940.00000000         -27687        -103899         -28586           6432
   2944.00000000          50228          24798         -19515          -8515
   2948.00000000          -1574          38456          19933           3395
   2952.00000000         -33983        -152850          -3621         -43970
   2956.00000000          49896          30590          25072          65463
   2960.00000000          82177         -89559          22678         -19816
   2964.00000000         -91137         -53647          83844          25591
   2968.00000000         -29327         -59826         -11432          50339
   2972.00000000         -25023         -30825         -55183          44089
   2976.00000000          25146          39097          27635         -73592
   2980.00000000          30719           3626         -40856          49175
   2984.00000000           6603          24432         -63654          91272
   2988.00000000         -33978         -13622          54743         -29156
   2992.00000000           4447          -1610        -109404          48833
   2996.00000000         -23739          34084         -14924         -47961
   3000.00000000         -25160          21298         -20955         -27691
   3004.00000000         -99735         -45819           7271        -107668
   3008.00000000          40190         -45205         -27948        -103025
   3012.00000000          29178         -49826          38799         -76903
   3016.00000000         -68603          55858         -41277         -46790
   3020.00000000           3074           9308          62830         -29205
   3024.00000000         118572         -42625          57786         -14824
   3028.00000000          29262         -29938         -29472        -107045
   3032.00000000          88111         -50425           3198          42635
   3036.00000000         -44734          -5793         -66113          11099
   3040.00000000          59145          37148          -2538         -13773
   3044.00000000          58580         -76812          -9667         -78800
   3048.00000000         -50543          15672         -58799         -78184
   3052.00000000          26051          43936          69976          22516
   3056.00000000         -29491         -68866        -109567         -65242
   3060.00000000         -73064         -34491         -16110          36001
   3064.00000000          24602           4624          80204         -10273
   3068.00000000         -65377         -67735          54900         -64214
   3072.00000000         -34492         -31331          33869         -57625
   3076.00000000          10488         -13014         -18041          43246
   3080.00000000          50463         -44786          29052         -44504
   3084.00000000          67686          26744         -15811          -7839
   3088.00000000          14099          31199           6142          50453
   3092.00000000          18310         -65380         -30107         -25998
   3096.00000000         -58289          10500          28045           8704
   3100.00000000         -20433          35461         -20494         -21784
   3104.00000000         -20646          32193          10024         -44382
   3108.00000000          -4314         -14801         -36291         -59287
   3112.00000000           5385         -32869        -103340         -67841
   3116.00000000          14952         -23656         -35994          22459
   3120.00000000          18436          14577          36174          76503
   3124.00000000              3          30021          36009         -35527
   3128.00000000         -92328          28331          -3350         -75418
   3132.00000000          17238          -7913         -17294         -47802
   3136.00000000         -21744         -40918         -30453          18785
   3140.00000000          23417          11526         -10451          -7221
   3144.00000000         -15248         -50845          60166          28558
   3148.00000000         -10653         -30412          83460          42444
   3152.00000000           3299          -4693         -17332          81302
   3156.00000000         -20561         -69278           3845         -12602
   3160.00000000           5247          10924         -10111        -110343
   3164.00000000         -36731         -65468         -40366           1022
   3168.00000000          32259          39973          10461          25676
   3172.00000000          74664          39816         -80896         -24464
   3176.00000000         -38805         -25059         -23401          -3769
   3180.00000000          28950         -10711         -35874         -42689
   3184.00000000          -7241          11972         -43144           3505
   3188.00000000         -46984         -51768         -44335         -23681
   3192.00000000         -97708           5294          -7994          -6578
   3196.00000000         -11440         -11325         -74219          59810
   3200.00000000            909         -57504          55242          71058
   3204.00000000         -26468         -24716          -4133          29707
   3208.00000000          21863         -41170         -32666         -29838
   3212.00000000           1285          32288         -57058          17124
   3216.00000000          79706          32114         -51730         -27563
   3220.00000000          40201          39129         -12340          47103
   3224.00000000          11582         -59017         -18964          98768
   3228.00000000          73861          56417         -30313         -26442
   3232.00000000          20808         -10848         -53183          34338
   3236.00000000          31240          56958          15011          38808
   3240.00000000           3660         -27888         -39749         -36075
   3244.00000000         -16232         -33864           3904         -42671
   3248.00000000          56464          28892         -20511          76305
   3252.00000000          -4938           1429         -34494         -11401
   3256.00000000          30836            415           8333           6305
   3260.00000000          68151         -10575          34928          60714
   3264.00000000           4022           -795         -19803         -14933
   3268.00000000         -51677          49072          28105         -26484
   3272.00000000          23652          10183         -45824          -6131
   3276.00000000         -61529         -54596          17199         -20519
   3280.00000000           2820         -84991          -9953         -45863
   3284.00000000          -8241          47706          33644          10270
   3288.00000000          13951          89894          35029            114
   3292.00000000          28371         -41366         -33783          -4939
   3296.00000000          41012         -24435         -42037           7593
   3300.00000000          44460         -48078         -26298          64697
   3304.00000000         -30655          11783         -79947          28852
   3308.00000000          42739           3880          39381         -12562
   3312.00000000           8135           3044         -50724          27824
   3316.00000000           9560          45096         -19715          15903
   3320.00000000          67409         -56242         -24023         -25208
   3324.00000000         -46137          26168          10137          24414
   3328.00000000           -709         -30295         -17654         -13153
   3332.00000000          -7318          10746          49710         -25921
   3336.00000000          22261         -68596         -42806          26254
   3340.00000000          -1812          -6098          43006          67353
   3344.00000000          -5895         -14102         -16640          35042
   3348.00000000          25213          20405           6985          -3085
   3352.00000000         -10076          -9703         -12066           9544
   3356.00000000          22075          15131          20901         -15349
   3360.00000000          31654          62132           1594           3622
   3364.00000000          55572            -20           8442           7100
   3368.00000000         -16159           4893          -6560         -24934
   3372.00000000          26562         -12563          10388          -4174
   3376.00000000         -53927         -31664          33738          11225
   3380.00000000           7210         -24273         -11671          27347
   3384.00000000         -26646         -40708          27820         -18667
   3388.00000000         -12960          -2965          44325         -15292
   3392.00000000          20842          10922           -752          37568
   3396.00000000         -27741         -25917          22765         -16459
   3400.00000000          26947           5323          -7848           2412
   3404.00000000         -23914         -17166          -1906           2675
   3408.00000000          37402          -9961         -60452          -4744
   3412.00000000          -3815           7504          40291          13120
   3416.00000000          54590          17937          29776          31312
   3420.00000000         -13856          11405          49382          32935
   3424.00000000          16762          21472         -11695         -23868
   3428.00000000          48118         -13015           8639         -36997
   3432.00000000         -32982           4859         -21679          27615
   3436.00000000         -52003         -49083           3265         -18715
   3440.00000000          40764          12070          18059           6228
   3444.00000000         -13375          46312          49458          -6104
   3448.00000000          33459           2303         -63228          20830
   3452.00000000          -3870           8066          25152         -39683
   3456.00000000          32991          31081         -24871           5270
   3460.00000000          26842         -23359          -5628          -1271
   3464.00000000           4142         -31937           6216           7444
   3468.00000000          -6235          17265          11614          -4299
   3472.00000000         -25727           8898           6821         -10232
   3476.00000000         -22667          -3244          -1360          15795
   3480.00000000         -21803          10497         -42144          22589
   3484.00000000          23762          -1092            135           9272
   3488.00000000           9559          -5188          35880           4599
   3492.00000000          -3147          11749          40029          26504
   3496.00000000         -53493          25943           2875          20119
   3500.00000000         -15519         -23892          25000         -44339
   3504.00000000          -5031         -54105         -13071          27152
   3508.00000000         -15760          25777         -11797           5737
   3512.00000000          -6288          19932          19555           6728
   3516.00000000         -32192         -47183         -15793          49406
   3520.00000000          34993           4564          28329           2373
   3524.00000000          31757          40849          29665          29159
   3528.00000000         -30899         -67338         -13800         -12580
   3532.00000000         -41634         -13340          -9853          26184
   3536.00000000          10958          10268         -18670         -17648
   3540.00000000           6275          -1019          27490         -37400
   3544.00000000         -54778           9618         -15415         -10710
   3548.00000000          13843           5359          49424         -32068
   3552.00000000          14842          31858          25069          16609
   3556.00000000         -11165         -17972          29698         -58441
   3560.00000000          11014           4528         -17518          15914
   3564.00000000          15130          12742          59817          10412
   3568.00000000          -4683          37102         -19464          -2173
   3572.00000000          13207         -17642          43075          -3914
   3576.00000000         -13860          -9034         -16821          15576
   3580.00000000         -23517         -12625         -17189           6188
   3584.00000000          -5126          -4092         -14316         -11485
   3588.00000000         -32053         -17695          -7431         -30991
   3592.00000000         -37821           3611          40733          22936
   3596.00000000          -4155          48365          14245          53543
   3600.00000000         -29897            356         -33493         -18837
   3604.00000000         -48089          20228           4685          -4676
   3608.00000000          -9221          28337          12221          -9792
   3612.00000000         -26055         -31388         -14068           7764
   3616.00000000         -25510         -25948         -45737          46720
   3620.00000000         -30042          28539         -42718            715
   3624.00000000           9504         -27958            178           1581
   3628.00000000          19368         -14059           9828         -28201
   3632.00000000          -2227          20950          47896          -7878
   3636.00000000           1195          25513           5458         -19806
   3640.00000000          11224         -52677          19594           3385
   3644.00000000          13268          34129         -18503          13174
   3648.00000000          35193          22505          -2353         -12198
   3652.00000000          21459          10558           -853           3716
   3656.00000000          26301           3598          21060          37995
   3660.00000000          -6477         -15070          16740         -20620
   3664.00000000          -9290          24426            259          11260
   3668.00000000         -19914           5564          18328           7493
   3672.00000000          21278           9274          -5832          -7240
   3676.00000000           -241         -22215          28889         -13435
   3680.00000000          -6547          -9145          28972          11808
   3684.00000000          17171         -19808         -27541          12898
   3688.00000000         -29506          20795           7421          -5121
   3692.00000000         -10636          22312          -2307           2239
   3696.00000000          -1269          14322          -3634          24259
   3700.00000000          44434         -26399          17303          50521
   3704.00000000          23014           5297           6699          47090
   3708.00000000           1466          33770         -26372          33695
   3712.00000000          -5081          -9511          -9498           5579
   3716.00000000         -14022           6917          24965           7251
   3720.00000000          10379          34285         -14597         -11949
   3724.00000000          -4650          -3330          -8328          14729
   3728.00000000         -10014          -4757          40561          -4219
   3732.00000000           5366         -11378         -18152         -54392
   3736.00000000           -295           3589           6173          24450
   3740.00000000          18339          -2284          20012          25546
   3744.00000000          10556          -8563         -11205           5175
   3748.00000000           9141             45         -22997         -14600
   3752.00000000          20497          15436           5083         -19423
   3756.00000000          -1367          -6992         -21024          27249
   3760.00000000          14133           8270          -8447          14273
   3764.00000000            830          20355          -6037         -24992
   3768.00000000          -3634           3700           6507          11206
   3772.00000000           9153           7965           2614          29299
   3776.00000000           8389         -29761           5244           7876
   3780.00000000          15262            794           -209           -374
   3784.00000000         -11277           3303          15126           6071
   3788.00000000           4587          -1447          24311          -7533
   3792.00000000          12334         -17158           9346         -10010
   3796.00000000          -3952          -4122          -9361           5800
   3800.00000000          20741         -25078          21565          -3388
   3804.00000000         -24094          16138          -2011          30280
   3808.00000000             40           9700          -7775           9815
   3812.00000000          13832         -21068           2217           -961
   3816.00000000         -24761           6565         -16938          13723
   3820.00000000          10181         -10664          21200         -14699
   3824.00000000          20801          -7583           9316         -19764
   3828.00000000          23616          21754         -19371         -15798
   3832.00000000           6642         -12546          -6789          -1008
   3836.00000000           4250         -14443          31883          27733
   3840.00000000          19760          -7127          30645          12771
   3844.00000000          10151         -13133         -44871         -12628
   3848.00000000          11402           7493           2307           5808
   3852.00000000         -16449           1673         -24550             91
   3856.00000000         -23838          36682          16132          -4023
   3860.00000000          17123           9924           6781          10846
   3864.00000000           6323         -12637          15109           6457
   3868.00000000          -2543          -2029          16510         -39122
   3872.00000000           9021         -13848          -1302          24128
   3876.00000000           6425           -831            958          16509
   3880.00000000          20550          -4508           2885          15254
   3884.00000000         -21202         -27375         -16863          -8617
   3888.00000000          20924           5155         -11119          18773
   3892.00000000          -3083          18793         -14429          -3534
   3896.00000000          -4030          30149           5352           4411
   3900.00000000          16841          10020         -22194          12808
   3904.00000000          -2377          -3007          -5371          17118
   3908.00000000          21890          -3115         -13135          -6276
   3912.00000000          -6120          15390         -11929         -11728
   3916.00000000           3992          -5941          -2156          15050
   3920.00000000          15980          24324          10857          20087
   3924.00000000          -1469          17323          34215          13963
   3928.00000000          11108          -7204           9341           -162
   3932.00000000          11970          16171           9638          -9520
   3936.00000000           -102           3650           8032          29759
   3940.00000000          -8674          23273          19400         -21631
   3944.00000000           5331           7069         -14119         -33397
   3948.00000000          17649          -1672           -564          -3923
   3952.00000000         -15767          -6970          -1415         -19871
   3956.00000000         -27687          16683           4100         -11361
   3960.00000000          -5459           3641         -35275          14615
   3964.00000000          -3928         -10934          11362          16343
   3968.00000000         -21534          21833          -6575          -9217
   3972.00000000          10379          20322         -16805           3728
   3976.00000000         -33845          -3345           4140          -8419
   3980.00000000         -12726          -5443          30760           2103
   3984.00000000          -3412          35384          -1683           7862
   3988.00000000          -9927         -26252          11581         -13642
   3992.00000000         -16582          18207           2062           1017
   3996.00000000          -2343          -6924         -38149          -5764
   4000.00000000          -4565           3747         -21580           5760
   4004.00000000         -25981           9496         -18913          14518
   4008.00000000          14817           6368          12798            -37
   4012.00000000           6890          -4829          -1347          17792
   4016.00000000          27147          13243           7058           9266
   4020.00000000          -3060          23010           6596          -9857
   4024.00000000          -4707          10972          15081          -7394
   4028.00000000          25244          -5209           6630          -5547
   4032.00000000         -12831           8144         -15379          26848
   4036.00000000         -23838         -14190          -3048         -12600
   4040.00000000           2137          11035          14174          -1193
   4044.00000000          -2659           4987          13088           -638
   4048.00000000          10413         -16775           -349            298
   4052.00000000          -9320          20881         -12815           1288
   4056.00000000          17774            184         -15737           8659
   4060.00000000         -21020         -16158          -3089           8108
   4064.00000000           9890          -3843          -6081         -11482
   4068.00000000         -19572          -1957          15747          -4100
   4072.00000000          12457           3454           2623           4205
   4076.00000000          -7464          17800          -1132           4307
   4080.00000000           7334          -2378          -6495          11812
   4084.00000000          21498          -5367            981          -8542
   4088.00000000           5775         -10065         -10829         -21515
   4092.00000000           8044           3047           4777           7632
   4096.00000000          25625          -1775          25109         -15230
   4100.00000000          11200          12441          17169         -14743
   4104.00000000          -7144          20766           1258           2722
   4108.00000000          -6906         -17843          -2597          17977
   4112.00000000         -17123          -9550         -13446           4328
   4116.00000000         -13412          14270           8672          -3103
   4120.00000000         -21235          15381           5163          -4658
   4124.00000000          19106         -32806         -12442            422
   4128.00000000          17435           9188           3433           5612
   4132.00000000          13358           9317           9150         -15962
   4136.00000000          12148          12582           9144          -5182
   4140.00000000          22900           6233         -18990           6010
   4144.00000000           8864          -7319         -12606           9892
   4148.00000000          20891           4578          18138         -13295
   4152.00000000          -8089          -4300           3258          25125
   4156.00000000           5659           4356          -6734         -16190
   4160.00000000           -578          -7044           8048           8048
   4164.00000000           1911         -25596          21793           1020
   4168.00000000         -20039           9140          15115          13092
   4172.00000000          19370           4681          11165          -1465
   4176.00000000           9758          10248           1158           8690
   4180.00000000           2488           5592           5094           2360
   4184.00000000          -5299          16926           3665           7285
   4188.00000000           1349          -2942          -7854          11480
   4192.00000000          -9640           4468           7577          -3893
   4196.00000000          24768           1390           -568          11165
   4200.00000000           6527          -3385          -1029           7707
   4204.00000000          -6715          12273          13517         -13835
   4208.00000000          -8574          19845         -12603           8830
   4212.00000000          15186          -9784          -5494          -9532
   4216.00000000         -22974           5541           -360         -10553
   4220.00000000           4037         -10330          -8373           4160
   4224.00000000          21529           5803           6223          -1921
   4228.00000000          24790          -4018         -10280          13080
   4232.00000000          13950           4496          -3784          16872
   4236.00000000           6079          -9741         -22699          11297
   4240.00000000          -9067          -2095           -623          -5811
   4244.00000000          -9473           2925           3049          -8006
   4248.00000000          -3763           -791            360           7281
   4252.00000000          -3024         -11208           3969         -22642
   4256.00000000          16691           5138           3120           8184
   4260.00000000          -8174           7559          -7229          -2070
   4264.00000000          -6347           -318            310          19950
   4268.00000000           9306            367          -8648           9904
   4272.00000000          -2727           -660          10727           6179
   4276.00000000           4691           5727          -8631           7827
   4280.00000000         -16657         -10943           8818           4595
   4284.00000000          15979          -1861          -6056          -2266
   4288.00000000           2329            187          21774           7415
   4292.00000000         -16948           4728           3427          17575
   4296.00000000          -2584          13070          -8596         -12502
   4300.00000000          -2305          -8141         -10167           1660
   4304.00000000          -3921          -5273          10971          20783
   4308.00000000          -1727          26047          -4814          10135
   4312.00000000          -1754         -11287           8714           2138
   4316.00000000           9280           3002          -5955          -7687
   4320.00000000           3821         -10549          14717           7786
   4324.00000000          11575           4300          -9501          -2998
   4328.00000000          -9249           2132          -5913         -14805
   4332.00000000          -3583           2111          21479           2770
   4336.00000000          -4567            347          19701          -3553
   4340.00000000           1221            726         -11649           5404
   4344.00000000           1751           5940           4575          -4266
   4348.00000000         -19150           2853           4708          12201
   4352.00000000          -4405          12963            -39           5402
   4356.00000000           2806           6691           6024           4582
   4360.00000000          -5276          -9896           6852          15916
   4364.00000000           2493           2425          -8860           1846
   4368.00000000           3199          16807         -10755         -12605
   4372.00000000          -4456          -6571         -10813           6501
   4376.00000000          14482          -5630            422           1078
   4380.00000000         -10891          -9195            581          -5752
   4384.00000000          -5092          11679           9418           4568
   4388.00000000          21653          -6231          10307          -3867
   4392.00000000          10981         -12786          11578            380
   4396.00000000          -2758           4146          -7589          -5903
   4400.00000000          -8924          -9656           5868           7625
   4404.00000000         -11665           -933          -2673          -5645
   4408.00000000          21465          -4663           9777           9261
   4412.00000000           8717           5813           9515           6780
   4416.00000000           -111           9785          -4015          -4613
   4420.00000000           8543         -17005           3323           5721
   4424.00000000           4934          -9130          -1245          11525
   4428.00000000           6527         -13299           4724          -1301
   4432.00000000         -23819            810           2195          -1376
   4436.00000000           -742          -2864          17042          -1035
   4440.00000000          -2609           8045           5934          14272
   4444.00000000            461           6525          -4376           8456
   4448.00000000           2994          11820         -12986          13952
   4452.00000000          14790          -8058          -5378           1994
   4456.00000000           1274           -513          -3997           2534
   4460.00000000           8701          -5685          -3845           7170
   4464.00000000           4308           2825         -26315          10112
   4468.00000000          -1258           4273           3515           2473
   4472.00000000           2478          -2938          -3564            250
   4476.00000000           3703           4279          -1227          -6998
   4480.00000000           5938           7566           4080          -1891
   4484.00000000           8750            175           2495          -2735
   4488.00000000           4836            455           7731           4449
   4492.00000000         -11020          10757           3658         -16821
   4496.00000000          14046           4964           5996           6244
   4500.00000000          -3425          -2446          -2610           1057
   4504.00000000          -2810          -3038           3443           5163
   4508.00000000          -8822           3952          -2706          -8738
   4512.00000000           4161          -5812           8130           4638
   4516.00000000          -2376            765          -1266         -20098
   4520.00000000          -2073            338           3000          -3074
   4524.00000000           7090          18359          12356         -14537
   4528.00000000          13258           4648           -386          -2175
   4532.00000000          -5311         -11266          -3870           2002
   4536.00000000          -3523          -1874          11627           1114
   4540.00000000          -1890            383           5458           -491
   4544.00000000          -4303           -639           5690          -2877
   4548.00000000           2492          10295          -2865           6003
   4552.00000000          15429          -4297           2983          -2636
   4556.00000000           4327           4762          10034          -9882
   4560.00000000           7119           4461            438           2030
   4564.00000000          -1061          12167           -102           1782
   4568.00000000            699            293           6592           2385
   4572.00000000           -677            586           4698           4709
   4576.00000000           3060            -57          10500          -1262
   4580.00000000           4846         -13173            539          -1216
   4584.00000000          -4313          -5100          -4710          -7041
   4588.00000000          -5937           8729           3737          -1367
   4592.00000000          -4925           1213           1353          14396
   4596.00000000            841           2439            550          -8693
   4600.00000000           7820           3267          10051           1858
   4604.00000000            880          -3514          11517           2069
   4608.00000000          -1328          -2100          -8863          -1327
   4612.00000000           9495           3280          -4470          -9972
   4616.00000000          -3022           4063          -2486           4336
   4620.00000000           8765           3514          -7284         -21882
   4624.00000000           6377          -1221           7500           5239
   4628.00000000          -5078           -210           9313          -7567
   4632.00000000          -3045           3501           1085           3945
   4636.00000000          -5309          -5273           2544           7207
   4640.00000000          -3819           8486            993          -4989
   4644.00000000          -6859           7409         -16104          -3869
   4648.00000000           3583            426            845           2670
   4652.00000000           4014           4555           2437           2404
   4656.00000000           3093          -6775           6684           1269
   4660.00000000          -4653           6959          -8891          -4940
   4664.00000000          -7933          10898          -3524           2254
   4668.00000000          -3494           4056           3217           -193
   4672.00000000          -4559            317          -1622           8256
   4676.00000000           1010          -6604           6494            745
   4680.00000000          -8966           -685          -2730           2622
   4684.00000000           3903           8846           -830          -4322
   4688.00000000           2776           3684          20200          -6861
   4692.00000000          15903           2746           -566          14466
   4696.00000000           7512           2267          -3589           -960
   4700.00000000           3861          -3349          -1877          11045
   4704.00000000           1228            441           2839          -1537
   4708.00000000            966          10655           9918            218
   4712.00000000           7121           3528           2414         -10994
   4716.00000000           2344          -2560          -1722          16515
   4720.00000000          -8234          -2450           4066          -9237
   4724.00000000           2868           -688          -6884           2040
   4728.00000000          15893          14315          -4381            326
   4732.00000000            784         -10442          -2957           5683
   4736.00000000           2358           -980          -9980            -66
   4740.00000000           6353          -4811           5176           1503
   4744.00000000           2799           9089          -4847           5361
   4748.00000000          -2038           5863           7429          -1078
   4752.00000000          12751          -9267          -5510          -2078
   4756.00000000           5675           3786           2739           6699
   4760.00000000          -2650          15950          -4034          -1981
   4764.00000000          -3862         -10997           -162          -3422
   4768.00000000          -5359           5351           9720          -7644
   4772.00000000           4825          -2173          -5551          11982
   4776.00000000         -10943          -3775           5396           3106
   4780.00000000          -4662          -1569           1285          -5951
   4784.00000000          -4127           7305           6375           4010
   4788.00000000          -5609          -4406           3225           2571
   4792.00000000          -4314           2702            665           2141
   4796.00000000          -1167           1543          -6913           4732
   4800.00000000          -7361          10922            611          -2164
   4804.00000000           2373          -2696          -2759          -1956
   4808.00000000          -6708         -12516          13692           7037
   4812.00000000           2489          -6298           2824           3358
   4816.00000000          -9511           8785           4542          -1265
   4820.00000000           5142          -1631           5250           -226
   4824.00000000          -5385          -4644           1091          -5241
   4828.00000000           1786          -2750          -7816            922
   4832.00000000           5372          -1259          -3468           -823
   4836.00000000           -722          -1201          -5437           -547
   4840.00000000           3566           3546           -242          -3668
   4844.00000000          -1709           2992           3932           1147
   4848.00000000           9745           3924           8963           2396
   4852.00000000          -4786          -1612           8794          -1784
   4856.00000000           4197          -1101           3537          -1814
   4860.00000000           1166          -2105            847            357
   4864.00000000           1487            877          11510           1730
   4868.00000000           6194           7063            944          -9708
   4872.00000000            788           1717           2173           3704
   4876.00000000          -2883          -1827           2771            923
   4880.00000000           -387           1874          -4240          -3254
   4884.00000000          -3568            124           3315           -338
   4888.00000000           1090          -7849          -5639           -770
   4892.00000000           4777          -5267           7417           1723
   4896.00000000          -3219            351           -106          -7044
   4900.00000000           8561           2350          -5382           2632
   4904.00000000           -122           4810            -61          -1090
   4908.00000000            845          -1472           2695           3950
   4912.00000000           3072           -945          -2304            900
   4916.00000000           2412           2846           7576          -3553
   4920.00000000           5304           2755            218           3273
   4924.00000000          -1168            749           4219            612
   4928.00000000          -2767           5639           2031           2881
   4932.00000000          -4794            562          -1004           2128
   4936.00000000          -2759          -1174           5956          -1689
   4940.00000000           6000          -1682            152            746
   4944.00000000           -521           4702           1892           6989
   4948.00000000           6500           3400          -2468           2698
   4952.00000000          -1507           2443          -4052           -891
   4956.00000000           6586          -5236          -1375           2231
   4960.00000000           3665           5858           -216           2548
   4964.00000000          -1059           3273            816           3813
   4968.00000000          -2420           -245          -2082          -4332
   4972.00000000           2491          -4058           1727          -1540
   4976.00000000          -1473           -968           6044           4934
   4980.00000000          -5397           -440           3064           2391
   4984.00000000           -464           2894           1342          -1951
   4988.00000000          -2912           3996          -2571           4166
   4992.00000000            556            -46          -2359          -5383
   4996.00000000          -5663          -2008           3318           5117
   5000.00000000          -8715           3297            693           5991
   5004.00000000            753            168           4243            302
   5008.00000000            921           3217           -624          -4893
   5012.00000000          -1966           4271           4459          -5313
   5016.00000000           7772          -2790           2861          -1249
   5020.00000000          -1241           1205          -3139          -3022
   5024.00000000           2415           9165           2123           1646
   5028.00000000           -272          -3110           3681           3793
   5032.00000000             62           1979           -988           3225
   5036.00000000           6412           3868           1854           2066
   5040.00000000           8179           1128           2280          -1950
   5044.00000000            -45           1454           2018           2416
   5048.00000000           3077           3184           5193          -2877
   5052.00000000          -2437           3423            437            -21
   5056.00000000           5749           2871           -742          -4362
   5060.00000000           5928            712          -1211            959
   5064.00000000           2306          -2074           -655          -2457
   5068.00000000           6179           2605           1416           1145
   5072.00000000           -105           1417           2461           2045
   5076.00000000          -4794           3970           6374          -1055
   5080.00000000           -430          -5776            737           -674
   5084.00000000           -648           3931          -1867           8291
   5088.00000000            310           6915           3088           -465
   5092.00000000          -1975          -3406          -2598           9286
   5096.00000000           3329           2538           -228           6966
   5100.00000000           1106           1231          -1618           1223
   5104.00000000             63           2776          -3678           5579
   5108.00000000           1733           7193           -960           -717
   5112.00000000          -1706           5961           3719          -5640
   5116.00000000           -296           4276          -1542          -1841
   5120.00000000           3648           1183           -408          -5224
   5124.00000000          -2677           -247           2317            324
   5128.00000000          -4615          -2009           -171          -1096
   5132.00000000           2385           3682            -27           5102
   5136.00000000           1123           2074            199          -3403
   5140.00000000           -474           2179          -1345           3099
   5144.00000000           -930           -446            601             65
   5148.00000000           2998          -3280           1995          -2896
   5152.00000000           4559           2883           3803           -125
   5156.00000000           3543           -506           1618          -5127
   5160.00000000           -192           1638           1983          -1492
   5164.00000000          -2811           1152          -2257           3856
   5168.00000000           1884           6084           5921           -907
   5172.00000000          -3623           4746           -770          -1048
   5176.00000000            232          -1437          -1517           2711
   5180.00000000          -1008           -138            977          -1342
   5184.00000000            -34          -1207            757           2838
   5188.00000000           1767           1432           2024           -138
   5192.00000000           4052           -930           -487           4271
   5196.00000000            559          -2709          -1337           -590
   5200.00000000          -1409            658           1570            571
   5204.00000000           1531            237           1323           1601
   5208.00000000           3172           3476          -2447          -7481
   5212.00000000            908            318          -1358            822
   5216.00000000          -1843          -4288            938           -659
   5220.00000000           3000            884              8           1278
   5224.00000000           4055           3550            874          -1415
   5228.00000000            273          -2645           3702           2260
   5232.00000000           3207           1523           -658          -2677
   5236.00000000           2653           3843           2742          -2273
   5240.00000000           3383          -1149          -2397          -1240
   5244.00000000           -712           -870           -183            592
   5248.00000000          -2290           2024           -916            216
   5252.00000000           -670           2395          -1434           2394
   5256.00000000           -455          -1542          -1060          -1817
   5260.00000000            -52          -3366            397          -2560
   5264.00000000           4243           4034          -2690          -1770
   5268.00000000           -569           2319           -790          -4144
   5272.00000000           3457          -7178          -4588           -399
   5276.00000000            603           2197            864           3290
   5280.00000000           2847          -1307          -2254          -1481
   5284.00000000            392          -3222            548             67
   5288.00000000          -2276          -5396           -700           -456
   5292.00000000            385           1338           4174          -1117
   5296.00000000           1215           -195           3442            850
   5300.00000000           -120          -3619            653           1256
   5304.00000000           -947           2748           1698          -1620
   5308.00000000           -780            152           2753            140
   5312.00000000          -2019             70          -3605          -1274
   5316.00000000           4359          -1851           3171           -382
   5320.00000000           2174          -1938          -2661            582
   5324.00000000           3109           -927           -171            755
   5328.00000000           -626          -1727          -1102          -1750
   5332.00000000           1100            -19          -1861           1152
   5336.00000000          -2717           -221           1011           3957
   5340.00000000           4764            221          -3851           1877
   5344.00000000          -3512            805           -777            345
   5348.00000000           2909           2567           -533           1194
   5352.00000000          -1990            855            683           2589
   5356.00000000           -156            224           2065          -2643
   5360.00000000          -4369           -582           1709          -3437
   5364.00000000           -672            193            573            923
   5368.00000000            147           3866          -2725            175
   5372.00000000           2069          -3755           1824           2820
   5376.00000000             31           3348            -44          -1115
   5380.00000000          -3775           -944           1464           -960
   5384.00000000           2386           3023          -3302            789
   5388.00000000           1277           1163           3389           1153
   5392.00000000           1630           2183          -1832            460
   5396.00000000            464           1682          -1095           2339
   5400.00000000            872          -1945            436          -1207
   5404.00000000          -1565           2153          -1288           1084
   5408.00000000          -1840            723          -1261          -2640
   5412.00000000           -323           3814           1926           2370
   5416.00000000          -1147            494           1236           -786
   5420.00000000           1088          -1431           3169           2351
   5424.00000000            274          -1879           2859           1355
   5428.00000000           -337           1060            423           2634
   5432.00000000           2513            974            230             89
   5436.00000000          -2092           -680           1291             80
   5440.00000000          -3354           3707          -3295          -2742
   5444.00000000           1943            728          -1717           2466
   5448.00000000           3519           -907           1135          -1090
   5452.00000000            359            991           -362            402
   5456.00000000            433            901           -282          -2279
   5460.00000000            870            834            325           1193
   5464.00000000            571          -1115          -1344           -751
   5468.00000000          -1437          -2619           -619          -1611
   5472.00000000           3730           3565          -1013           -944
   5476.00000000          -2147             94          -3984           4518
   5480.00000000           2420          -1732          -3348           -111
   5484.00000000           -419          -1252          -3707           -975
   5488.00000000           1063           2024          -2113          -1315
   5492.00000000           -436           1035           1134            701
   5496.00000000           3910           1739            -14          -1291
   5500.00000000          -2575           3106            892            500
   5504.00000000           4643            579            670          -1241
   5508.00000000            545          -2795          -1080          -2538
   5512.00000000           -425          -2627           2541           3143
   5516.00000000          -3059            153          -2044          -2739
   5520.00000000           -540           1790           -784          -3561
   5524.00000000           -844           1525            -73          -1587
   5528.00000000          -1997           -318          -2003           1300
   5532.00000000           2501           1430           2599           -248
   5536.00000000          -1131           -770            885           1848
   5540.00000000           -726           1013          -1192            892
   5544.00000000           1496            479            204           -194
   5548.00000000           1819          -1528           1448           3352
   5552.00000000           1112           -887           1545           -238
   5556.00000000           -578           3627          -1837           2538
   5560.00000000            860            203          -1692            836
   5564.00000000           2244           2118           4903          -1391
   5568.00000000           1904          -1673            235            550
   5572.00000000           1435           1407            182           1738
   5576.00000000           -937            664           1408           2060
   5580.00000000          -1114            352          -1718          -1758
   5584.00000000           1580           3178          -1593            966
   5588.00000000           2176            463            211          -1940
   5592.00000000           1790           -866          -1386           2206
   5596.00000000          -1292           1457           1576           -716
   5600.00000000            424          -1250          -1471           -581
   5604.00000000           2050          -1229          -2308           1634
   5608.00000000            888          -1506           2473           -759
   5612.00000000           -198            322           3345           -239
   5616.00000000           -114          -1600           1071           -470
   5620.00000000           -420           -354           1715            207
   5624.00000000           1512           1723           1383          -1482
   5628.00000000           -964          -2983           -258           2492
   5632.00000000          -2506          -1337           -451           2396
   5636.00000000           1558          -1302           1220             73
   5640.00000000          -1869          -1236           1775            200
   5644.00000000            113          -1366          -1969           -752
   5648.00000000           -335          -2995          -1269            287
   5652.00000000             45           1937           -243            917
   5656.00000000           3900           -364            291            320
   5660.00000000            463           -346           2136           -147
   5664.00000000           -670          -2544            120           1191
   5668.00000000           -314           -979           1269           1280
   5672.00000000          -1941           -924            879           -788
   5676.00000000             52           1696           1767          -1120
   5680.00000000          -1281            745           2076          -1138
   5684.00000000           1304          -2185            399            260
   5688.00000000           1159           -251           1402           -184
   5692.00000000          -1582            675           4170            383
   5696.00000000           -757          -1930          -2678          -1301
   5700.00000000           2386           -133            -68           1074
   5704.00000000          -1025           1229           1580           1391
   5708.00000000            370            862          -2579          -3325
   5712.00000000           -647            445           2150            777
   5716.00000000           2586             69            794            770
   5720.00000000          -2197           1109           1360            682
   5724.00000000            155            612           -768           -339
   5728.00000000            191            293           -925            687
   5732.00000000          -1101          -1836          -1754           1667
   5736.00000000          -1245           -459          -1282          -1049
   5740.00000000           -969           2239           -147          -3001
   5744.00000000           1763          -1285           -577           -546
   5748.00000000           -321           1582           1275           -359
   5752.00000000           -621           1468            597            830
   5756.00000000            175            705            671           1894
   5760.00000000            696              0             68           -492
   5764.00000000          -1389           -418          -1013            807
   5768.00000000            968           -568           -354          -1257
   5772.00000000           1632            -49            653          -1053
   5776.00000000            283            238           -370           -324
   5780.00000000           1918           1215           1005           1078
   5784.00000000            792           -553           -122           -563
   5788.00000000           -511          -1891            680           -438
   5792.00000000           1175            395           -700          -3358
   5796.00000000            518           1444           -922           -960
   5800.00000000          -1693            502           -488           1123
   5804.00000000          -2932           -897            288           -559
   5808.00000000           -675            943          -1739           1188
   5812.00000000           -365           -642           -520           2944
   5816.00000000           -404             49           -813            657
   5820.00000000           2931           -841            -54           -588
   5824.00000000            369           1125           -318          -1458
   5828.00000000           -272            191           1019           1533
   5832.00000000            989           1625            657            944
   5836.00000000           2561           -435           -542           -767
   5840.00000000          -1327            239           -993           -360
   5844.00000000            285           -267            -15           -873
   5848.00000000            809           2194           1235           1095
   5852.00000000           -335           -931            515             79
   5856.00000000           1135          -3149          -1298            117
   5860.00000000           -131           -286          -2060           1156
   5864.00000000            649           -811          -1716          -1314
   5868.00000000          -1108          -1034           1843           -307
   5872.00000000           -934           -614           1687            -85
   5876.00000000           1122            330            534            374
   5880.00000000            752           -792          -2443           -741
   5884.00000000            128            805           -270          -1455
   5888.00000000           -627           -755           -567            903
   5892.00000000            226          -1975          -1284          -1476
   5896.00000000            711          -1201           1313           1303
   5900.00000000          -1459           -626            452            246
   5904.00000000           -571          -1713          -1809            116
   5908.00000000           2648          -1500           -202           1545
   5912.00000000             40             14            -63          -1476
   5916.00000000           -436             70           -248           1657
   5920.00000000           1498           1021          -1719            695
   5924.00000000           -312           -575            196           -266
   5928.00000000          -1060           1599            587          -1160
   5932.00000000            733            665          -1730          -1330
   5936.00000000          -2344            176          -1403           -952
   5940.00000000            531          -1144            -62           -141
   5944.00000000          -1576            583           -483           -538
   5948.00000000             30            380            936            908
   5952.00000000             99            938           -113            148
   5956.00000000            879             86           -887           -273
   5960.00000000           1646           -774           1054             34
   5964.00000000           -604            141           1766            717
   5968.00000000            521            242            519           -789
   5972.00000000          -1341            718           -196           -110
   5976.00000000           -766            633           2483            -41
   5980.00000000           -102            857          -1155           -279
   5984.00000000          -2310          -1095           -310           -290
   5988.00000000          -1391           -481            134             70
   5992.00000000            207            -40          -1006           2662
   5996.00000000          -1237           1622           -817          -1639
   6000.00000000            359          -1025           -379           -159
   6004.00000000           -679          -1097            239            387
   6008.00000000           -953            636            820           -533
   6012.00000000          -1609           1571          -1085           -648
   6016.00000000            566              4            886            400
   6020.00000000            760            -64           -737          -1202
   6024.00000000           -755            497             78            -29
   6028.00000000          -1097            757           -203            168
   6032.00000000          -2250          -1205            -89           -447
   6036.00000000           -468           -307           -853          -1123
   6040.00000000           -561             17           -109           -312
   6044.00000000          -1801          -1424            601            194
   6048.00000000           -440           -191           -486           -877
   6052.00000000            276           -832           1349           -286
   6056.00000000            350            459           1298           -456
   6060.00000000            -52           2377            249           -467
   6064.00000000          -1036          -1147           -769           -287
   6068.00000000             98            240           -818            586
   6072.00000000            517            -48            207           -114
   6076.00000000           -529            331            557             20
   6080.00000000          -1462            580           -791             64
   6084.00000000          -1091           1491            192             25
   6088.00000000          -1928            -76           -962             34
   6092.00000000            758           -713           -212           -364
   6096.00000000           -377            669            538           -694
   6100.00000000           -802           -517           -180            279
   6104.00000000           -288           -471           -689           -519
   6108.00000000           -110           -771           -296          -1166
   6112.00000000           -174            328          -1336          -1835
   6116.00000000           -478           -648            543           1020
   6120.00000000          -1409             33           -566          -1198
   6124.00000000           -335           -494            216            265
   6128.00000000            458            955            275            610
   6132.00000000            234            138            156            284
   6136.00000000           -933           -334            -19          -1406
   6140.00000000           -203          -1315           -285           -622
   6144.00000000             47           -761            -54           -303
   6148.00000000          -1274          -1755            828           -208
   6152.00000000           -635            902           -759           -236
   6156.00000000           -259           -328           -369             57
   6160.00000000            931            351           -210            730
   6164.00000000             32            858           -164            829
   6168.00000000           -544           -936            740           -169
   6172.00000000           -184           -753           -251           -200
   6176.00000000            472            689            562            407
   6180.00000000           -129             95            250           -320
   6184.00000000            584          -1278            936           -667
   6188.00000000           -345            533           -153           -463
   6192.00000000           -299            708           -220           -782
   6196.00000000              5           -701           -375           -346
   6200.00000000            231          -1203            342           -793
   6204.00000000           -599            822          -1878            -42
   6208.00000000          -1114            222           -273           -205
   6212.00000000            490           -254            319           -459
   6216.00000000            166           -602            311            356
   6220.00000000          -1703           -169            148            -46
   6224.00000000            267           -655             88            701
   6228.00000000          -1622           -124          -1077            462
   6232.00000000            332            -47          -1946           -508
   6236.00000000           -911           -839           -736           -741
   6240.00000000            799           -465           -389          -1453
   6244.00000000            -52              5           -517           -526
   6248.00000000           -839           -140           -328           -206
   6252.00000000           -416            651            157            217
   6256.00000000          -1472            422           1450            992
   6260.00000000            202          -1142           -950            323
   6264.00000000           -449            162            694           -541
   6268.00000000           -779            133           1010            254
   6272.00000000          -1285           -800             88             36
   6276.00000000           -180            241             67           -369
   6280.00000000             52            -14            987           -262
   6284.00000000           -645           -736           -100            200
   6288.00000000           -694           -586            259           -266
   6292.00000000           -925            124          -1001          -1534
   6296.00000000           -584           1222            190           -124
   6300.00000000            -69            806            666            121
   6304.00000000           -559           -656           -611            741
   6308.00000000           -649          -1016            312           1165
   6312.00000000           -126           -149              0            945
   6316.00000000           -937            595           1138           -277
   6320.00000000            186           1101           -910            643
   6324.00000000           -512           -853            273           -696
   6328.00000000            924            343           -352           1913
   6332.00000000            308              4           -913           -277
   6336.00000000           -143           -401           -296           -889
   6340.00000000           -881           -358           -289            690
   6344.00000000           -842            206            492           -763
   6348.00000000          -1909            446           1426          -1102
   6352.00000000           -512           -993           -592           -612
   6356.00000000             94          -1304          -1273            358
   6360.00000000          -1436           -499           -513           -469
   6364.00000000           -409           -251           -174             16
   6368.00000000           -998            155             53            229
   6372.00000000            525          -1074           -121           -693
   6376.00000000           -847            722           -115            370
   6380.00000000           -670            -31           -243           -180
   6384.00000000           -921            609            339           -133
   6388.00000000          -1112            399           -335           -590
   6392.00000000           -309           -891             99            -88
   6396.00000000          -1483            655           -660            850
   6400.00000000           1451            102           1189          -1285
   6404.00000000           -777            677            310             98
   6408.00000000           -713           -664           -250           -666
   6412.00000000            219            713            213           -484
   6416.00000000            641            132           -379            461
   6420.00000000            258            104            -77            489
   6424.00000000           1359            383           -948           -432
   6428.00000000            212           -407            409            415
   6432.00000000            480            140           -730           -865
   6436.00000000            585           -185             -6            323
   6440.00000000             70           -220           -915           -470
   6444.00000000            634           -219           -471            -29
   6448.00000000           -272            -69           -100             65
   6452.00000000            -87          -1622            258           -296
   6456.00000000           -652             13           -114            387
   6460.00000000             34           -269            -40           -389
   6464.00000000             18             14           -161           -425
   6468.00000000            326             29            666           -198
   6472.00000000           -286            572            882            257
   6476.00000000           -107            256          -1376           -564
   6480.00000000           -382           -114           1013           -222
   6484.00000000           -292           -449           -325           -194
   6488.00000000          -1301            126           -422           -867
   6492.00000000           -684           -747           -891           -253
   6496.00000000           -810            -59            227            -26
   6500.00000000           -212            402            222            -68
   6504.00000000            364           -384            -28           -550
   6508.00000000            136            202             87           -903
   6512.00000000             -7           -547            378           -205
   6516.00000000            -10             57           -192           -278
   6520.00000000           -363           -721            675           -207
   6524.00000000           -367           -286            107            268
   6528.00000000           -447            301            431          -1057
   6532.00000000           -104            160            141             -5
   6536.00000000           -555            -67           -880            -73
   6540.00000000            282            -43            281           -876
   6544.00000000             68            -65           -504            300
   6548.00000000              5           -901           -121           -722
   6552.00000000            429           -649           -149           -148
   6556.00000000            312           -979           -758            -92
   6560.00000000            -15           -367            300            104
   6564.00000000           -218           -865           -473            784
   6568.00000000           -395            -10           -237           -728
   6572.00000000             53            110            498            358
   6576.00000000           -267             26            208          -1069
   6580.00000000           -569            -24           -424            983
   6584.00000000             -2           -226             30           -139
   6588.00000000            -79              3           -342            180
   6592.00000000           -150           -632           -173           -103
   6596.00000000           -831            405            -77           -150
   6600.00000000           -328           -315           -130           -762
   6604.00000000           -271            222           -175           -179
   6608.00000000           -543           -313           -462           -200
   6612.00000000           -570            -22            -31           -513
   6616.00000000           -180            261            -70            123
   6620.00000000           -417             72           -338           -468
   6624.00000000           -483          -1198           -593           -727
   6628.00000000           -261           -771            208             55
   6632.00000000             99             49            573            128
   6636.00000000            607            -34           -129           -825
   6640.00000000            412            119           -332           -305
   6644.00000000            364           -756            -51           -577
   6648.00000000           -120             63           -259            315
   6652.00000000            -58            200           -125            385
   6656.00000000           -729            267            -84           -557
   6660.00000000              6           -858           1106           -215
   6664.00000000          -1140            -90          -1412           -590
   6668.00000000           -189           -371             39           -784
   6672.00000000           -497           -199           -441           -341
   6676.00000000           -430           -664           -398            144
   6680.00000000           -717           -661           -465            318
   6684.00000000             82           -406           -438            611
   6688.00000000             55            135             45           -823
   6692.00000000           -788            127            576           -435
   6696.00000000              3            490             69           -350
   6700.00000000           -656            330             10             95
   6704.00000000             78            410           -513           -380
   6708.00000000             52            167           -984            -96
   6712.00000000           -265           -546            191           -255
   6716.00000000           -717            342           -175            -64
   6720.00000000           -300            306           -205            334
   6724.00000000             56           -221           -236             85
   6728.00000000            173           -509           -464            107
   6732.00000000           -767            101           -512            420
   6736.00000000           -813            521           -354            354
   6740.00000000            182            -59            512            -30
   6744.00000000           -490           -439            235             98
   6748.00000000           -666            181            -15             21
   6752.00000000           -304             39            212            -32
   6756.00000000           -184            153            344             41
   6760.00000000            179            -91           -227           -379
   6764.00000000             12            -58           -358             83
   6768.00000000           -115            181           -577           -357
   6772.00000000            520           -744            -36            287
   6776.00000000            369           -325           -360           -160
   6780.00000000           -280           -145           -260            782
   6784.00000000           -452           -277            279            -53
   6788.00000000           -167           -385            -34            525
   6792.00000000            -62            -46           -484           -389
   6796.00000000              6            237            -18            395
   6800.00000000            242            176            703           -601
   6804.00000000             75           -603           -587            304
   6808.00000000            119           -349            213           -127
   6812.00000000           -841           -184           -164           -136
   6816.00000000           -438           -216           -145           -508
   6820.00000000            -57           -255           -339            -13
   6824.00000000            513           -261            133           -379
   6828.00000000            242            126            597            -86
   6832.00000000           -864            -42           -328           -971
   6836.00000000           -258           -210           -355            137
   6840.00000000           -146           -262           -591           -330
   6844.00000000           -306            342            614           -380
   6848.00000000           -422           -139           -375            428
   6852.00000000            138           -219           -263            223
   6856.00000000            -71            411           -428            -87
   6860.00000000            -33             37           -219            149
   6864.00000000            -56           -356            303             35
   6868.00000000           -608            -11           -238           -209
   6872.00000000           -120            311           -408           -311
   6876.00000000           -295            148           -344            167
   6880.00000000            236           -229           -360            447
   6884.00000000             10            -71           -134           -273
   6888.00000000           -504            220           -237           -116
   6892.00000000             94           -259           -349           -180
   6896.00000000            829           -152           -337           -217
   6900.00000000            349           -441            291            128
   6904.00000000           -292            231            -88          -1073
   6908.00000000            280            404           -156           -221
   6912.00000000            164           -296            110            249
   6916.00000000            -73           -124             33           -285
   6920.00000000            176           -171            -83           -224
   6924.00000000           -292           -138           -363            -38
   6928.00000000             -6            103           -125           -226
   6932.00000000            337             26           -341           -178
   6936.00000000             58           -270             35           -447
   6940.00000000           -341            118            155            -36
   6944.00000000           -213           -454           -598           -132
   6948.00000000           -706           -279           -496           -106
   6952.00000000           -403            173           -371           -213
   6956.00000000           -613            -73             -5            138
   6960.00000000           -166           -395           -536            244
   6964.00000000           -211             35            -59           -403
   6968.00000000           -394           -295             38            167
   6972.00000000             71            177            -44             19
   6976.00000000           -196            355           -382           -242
   6980.00000000           -404            -49            -12           -169
   6984.00000000            195             -3             75             65
   6988.00000000           -106           -271            171             -2
   6992.00000000            -65           -340           -167            -66
   6996.00000000            413           -333           -175           -157
   7000.00000000            309           -563           -223           -280
   7004.00000000           -138             89           -364           -304
   7008.00000000           -109           -241           -184             58
   7012.00000000             13           -208            131           -459
   7016.00000000            173            137           -172           -221
   7020.00000000           -175           -273            283            240
   7024.00000000           -317             69           -210           -118
   7028.00000000           -246           -295           -326           -397
   7032.00000000           -210             91           -138           -356
   7036.00000000           -411            167            349           -248
   7040.00000000           -794           -328            160            190
   7044.00000000             37             81           -156           -503
   7048.00000000           -186             18             78           -360
   7052.00000000            297            -25           -249            328
   7056.00000000            -49           -184            195           -461
   7060.00000000           -334            -31            -22             18
   7064.00000000           -232            -73            -80            166
   7068.00000000            294           -234            -43           -108
   7072.00000000           -195           -143             78             20
   7076.00000000             90           -243             71           -143
   7080.00000000            267             35            117           -290
   7084.00000000           -266           -354           -231            -82
   7088.00000000           -133           -250           -310           -362
   7092.00000000            313            -49             31             85
   7096.00000000            141             99           -149           -244
   7100.00000000           -116             47            -98           -242
   7104.00000000           -130            -90            138            -34
   7108.00000000            -57           -183           -226             42
   7112.00000000            220            104            -13           -218
   7116.00000000           -283           -106             93           -215
   7120.00000000             11           -263             30             35
   7124.00000000           -134           -283            104             21
   7128.00000000           -161            106           -200            147
   7132.00000000            -64            -69            -26           -263
   7136.00000000           -215            208            101           -182
   7140.00000000            127           -152           -230            -81
   7144.00000000            352           -296           -118           -453
   7148.00000000             16           -179             33           -161
   7152.00000000             -6             57           -227            211
   7156.00000000            343             76           -236             64
   7160.00000000           -186             16            248            -70
   7164.00000000           -144            304            155           -138
   7168.00000000            -44            -49           -146            236
   7172.00000000           -142           -111           -266           -218
   7176.00000000            -37              0            277           -406
   7180.00000000           -246            129            -13             63
   7184.00000000           -106            -29           -149           -359
   7188.00000000            -24           -219            159            359
   7192.00000000           -141           -166           -318           -451
   7196.00000000            340             36           -276           -164
   7200.00000000           -438            105            201           -132
   7204.00000000           -354            145           -472           -123
   7208.00000000            -13            -10            -70           -292
   7212.00000000            -70           -143            -18            270
   7216.00000000            100             -5           -178             86
   7220.00000000            -36           -111            104           -123
   7224.00000000           -519             23           -117             -1
   7228.00000000           -269           -238           -133            -62
   7232.00000000            146            -77           -100            136
   7236.00000000            164           -233             24             56
   7240.00000000            103            -32           -102            -74
   7244.00000000            130            -38            -93           -186
   7248.00000000            -51             -6           -439             18
   7252.00000000           -257             81              6           -193
   7256.00000000             71            -66           -116             53
   7260.00000000            285            261            252            -38
   7264.00000000            126            162           -239            -21
   7268.00000000            -42            168           -250            335
   7272.00000000            125            103            -57            149
   7276.00000000           -352             -2            207           -129
   7280.00000000           -287             67            -65            -43
   7284.00000000             10            -22            125            385
   7288.00000000            -68             73            -60             50
   7292.00000000            473            -44           -269           -207
   7296.00000000            318             25            -76             59
   7300.00000000            104            -61            -16            188
   7304.00000000           -114            347            -33           -315
   7308.00000000            141             76            -11           -181
   7312.00000000            380            -11           -113           -226
   7316.00000000           -122            209            -49            118
   7320.00000000             66           -192           -226           -225
   7324.00000000            -36           -218             26            -89
   7328.00000000             85             46            -92           -189
   7332.00000000             -3            -58            218            128
   7336.00000000            -74            182            -35           -154
   7340.00000000             62             99           -193            -93
   7344.00000000            163            -22              3            -93
   7348.00000000           -239            161            -92             12
   7352.00000000             34             40            197            122
   7356.00000000           -163           -149             60            -36
   7360.00000000            -62           -104            116             -9
   7364.00000000             46           -128           -271            -56
   7368.00000000            291            -81           -219             59
   7372.00000000            -33            -52            161           -201
   7376.00000000           -217           -345             85             52
   7380.00000000            109            -93           -112            144
   7384.00000000             27             97           -181             55
   7388.00000000           -293             44           -221             34
   7392.00000000            -75            -95           -170            202
   7396.00000000            -64            -24             23           -193
   7400.00000000           -174            262            115           -190
   7404.00000000            258             14            -12            -33
   7408.00000000            259            -29            144             98
   7412.00000000             37             64            190           -235
   7416.00000000           -290             83             28            160
   7420.00000000            -97            -62             24            265
   7424.00000000             76            138            -87           -323
   7428.00000000            256            -35            215            -79
   7432.00000000            220             80             59           -107
   7436.00000000             -3            -53            -52            -10
   7440.00000000            115            -88             47           -128
   7444.00000000            -28            -96            289            163
   7448.00000000             -1           -128             21           -103
   7452.00000000            142           -116           -105            -85
   7456.00000000            -95            167             96            257
   7460.00000000           -141             -8            136            120
   7464.00000000           -114           -133           -365            155
   7468.00000000            118            236            -43            233
   7472.00000000            -83           -109            263            -16
   7476.00000000            222            120           -112            -40
   7480.00000000            -35             57             52             80
   7484.00000000           -199             26            -38            113
   7488.00000000            178            -91             25           -154
   7492.00000000            -81             90            140           -178
   7496.00000000            -61             90             28           -186
   7500.00000000            -69            -60            -86             41
   7504.00000000             36           -154            -44            -87
   7508.00000000             94            -51            234            -99
   7512.00000000           -238           -276            -81            213
   7516.00000000            246            -11            109            112
   7520.00000000            162            -81              4            -97
   7524.00000000           -221             41             85              7
   7528.00000000           -133              3              2              4
   7532.00000000           -276            -38            -90            -81
   7536.00000000            -58            160            139             -5
   7540.00000000            128           -176            -78            359
   7544.00000000             47            -94            -59            -38
   7548.00000000             77             35            -14            191
   7552.00000000             85            -14            324             53
   7556.00000000            146           -140            -16           -175
   7560.00000000           -199             24             91            -63
   7564.00000000           -111             88            -81            -86
   7568.00000000           -168             67            116            -34
   7572.00000000            243            -74             -0             19
   7576.00000000            159           -134           -268            145
   7580.00000000           -187            170            146           -150
   7584.00000000            -40            -30            -12             50
   7588.00000000             26            -57             36             54
   7592.00000000            -83             38            -99            115
   7596.00000000            -76           -130           -157            -50
   7600.00000000            -38            -95            -15            -86
   7604.00000000           -112            -24             68              6
   7608.00000000           -118           -103            -63             17
   7612.00000000             13            -17            112            -26
   7616.00000000            256            -64            119            -28
   7620.00000000           -123            -14           -146           -212
   7624.00000000            -86             98            -58             -6
   7628.00000000              1             49             22           -117
   7632.00000000            116             -9            -70           -218
   7636.00000000            -53             88           -100            126
   7640.00000000            -36             12             86           -134
   7644.00000000            141             69             -2             14
   7648.00000000            -16           -214            -80             70
   7652.00000000             74             11            -72            -83
   7656.00000000             47            177            -14           -122
   7660.00000000             33             35            -63             -3
   7664.00000000           -172             20             20             34
   7668.00000000            126            -67              2            -99
   7672.00000000            -81           -122              8            -75
   7676.00000000            -12            101             -6           -161
   7680.00000000            -50            -17             29            -84
   7684.00000000             33              7             37           -238
   7688.00000000            -65             28             49            -25
   7692.00000000            -10             49            -80           -124
   7696.00000000            -47            -78            178            133
   7700.00000000             28            -17             92            170
   7704.00000000           -129           -121            -48             83
   7708.00000000            -36             69             94             55
   7712.00000000             85             47            -60             78
   7716.00000000             75            -23             -0            140
   7720.00000000            -91             56            271            -11
   7724.00000000             34             62            107            125
   7728.00000000            -99            -86           -114             51
   7732.00000000            -22            -42           -150            158
   7736.00000000           -116             -8            -46             59
   7740.00000000            -75            -91            144           -130
   7744.00000000             65            -22           -265            -30
   7748.00000000           -105             49            -64            -24
   7752.00000000            -78             89             -8            -10
   7756.00000000           -156             90             -5            -30
   7760.00000000           -110            182             76              4
   7764.00000000            -23            130            150            -40
   7768.00000000             16             98             12            -62
   7772.00000000             98            165             31              7
   7776.00000000           -116            -51            -19            -55
   7780.00000000            -15             61            -80            -47
   7784.00000000            -85            123            127            113
   7788.00000000              5             34             33             65
   7792.00000000           -108             24            115            132
   7796.00000000            175             97            -22            -86
   7800.00000000             69            -31             94           -151
   7804.00000000             68            -41             75             37
   7808.00000000            165             16            -23            -21
   7812.00000000            -48              4             69             71
   7816.00000000            -18             82             42             56
   7820.00000000            132           -158            101            333
   7824.00000000             -5             97            -55            -29
   7828.00000000            -26            -12           -127             95
   7832.00000000            100             11             58             56
   7836.00000000             48            103           -112            107
   7840.00000000             23            -32             -3             16
   7844.00000000            178             87            -29             22
   7848.00000000            -44             17           -132             39
   7852.00000000            -22            -25            -31           -201
   7856.00000000             27            117            -53             59
   7860.00000000             72            -16             92             34
   7864.00000000            -46             48             10             13
   7868.00000000             -3            -39            112             13
   7872.00000000           -111            111            -10             69
   7876.00000000            -45             29            -43             43
   7880.00000000            -39            105            128             11
   7884.00000000             36              1            107            115
   7888.00000000             50             58            -55           -101
   7892.00000000             42            152             40            -86
   7896.00000000            159            -16            -17             15
   7900.00000000            -74            -70             55            -99
   7904.00000000             40             16             73             27
   7908.00000000           -151             35            -17            -67
   7912.00000000            -23            100            148            -16
   7916.00000000            119            -70            -16            -70
   7920.00000000             83             -6            -81             42
   7924.00000000             25             18            117            -42
   7928.00000000            -25            -50             92             44
   7932.00000000            114             39            -56            137
   7936.00000000            -89            122            -55             33
   7940.00000000             27              8             69             30
   7944.00000000             29             25             -4             86
   7948.00000000             23             94            -10            160
   7952.00000000             18             -1            -30             -8
   7956.00000000             81            158             58             39
   7960.00000000              5            -53            -98            -98
   7964.00000000            141             45            -75            -11
   7968.00000000              1             84            105            -54
   7972.00000000             69            -32             74             13
   7976.00000000             74            -83             21            -88
   7980.00000000            -86            -13            -33            101
   7984.00000000             23            107             43             20
   7988.00000000            -91             56            129             14
   7992.00000000              4             11            144            157
   7996.00000000             17             36            -66             65
   8000.00000000             41             76              1           -139
   8004.00000000           -114            -15            119            -62
   8008.00000000            -36            -43             -6            -50
   8012.00000000              1             76             -2            -92
   8016.00000000             69             36           -134              9
   8020.00000000             49           -163              2             38
   8024.00000000             28            102            -63             21
   8028.00000000           -190            -53             25            -95
   8032.00000000            -17             61            -15            -17
   8036.00000000            -24             -9              6             55
   8040.00000000             49           -103             -3            -37
   8044.00000000            100            -14            110             19
   8048.00000000            -62             25            -40             80
   8052.00000000            -28             -7             52            -38
   8056.00000000             79             48             -5             98
   8060.00000000             88            -92            123             54
   8064.00000000             99            -89            -60             69
   8068.00000000            101            135            -12             43
   8072.00000000            -80             72             15            -27
   8076.00000000             72            -21            -57            -17
   8080.00000000              6            -45            -24            -89
   8084.00000000             43            -21             73            -12
   8088.00000000            -52             18             85            -13
   8092.00000000             63            -10             46              9
   8096.00000000            -18             37             26             67
   8100.00000000             -3            -43              5            -35
   8104.00000000            -15            -23             67             30
   8108.00000000             37            130            -16             99
   8112.00000000            -59             10             42            100
   8116.00000000            -16            -56            -23             52
   8120.00000000             89             41            -24             29
   8124.00000000            122             57             84             27
   8128.00000000           -111             36            -36            -43
   8132.00000000             -2              0             97            -17
   8136.00000000             20             16            -34             47
   8140.00000000              9             90            -53            -35
   8144.00000000             13            -26             19              5
   8148.00000000            -48             -0            -32             38
   8152.00000000           -111             25            -46            126
   8156.00000000             98            -28             28            -57
   8160.00000000            -18            -12             -1             66
   8164.00000000            -66            -14             22             17
   8168.00000000             12            -89              8             22
   8172.00000000             31             -9             -6             71
   8176.00000000            -37            129           -146            100
   8180.00000000              1            -89             51             39
   8184.00000000            -56             61            131             14
   8188.00000000            -80             83             62             -8
##PAGE=N=2
##DATA TABLE= (X++(I..I)), XYDATA
      0.00000000      633343479      464145455      396922316      555868564
      4.00000000      658973319      344907161     -356312428    -1109983109
      8.00000000    -1461064677    -1152791346     -215242208      964570815
     12.00000000     1796859793     1765061120      814264394     -552368142
     16.00000000    -1521398383    -1604962396     -907602296       15872713
     20.00000000      633571858      770770666      597702047      354147503
     24.00000000      213197481      169844275       81040114     -208304530
     28.00000000     -680958595    -1070880698     -976674893     -247756299
     32.00000000      815011147     1566030698     1505815262      633089771
     36.00000000     -537455135    -1355992552    -1428921520     -820348019
     40.00000000       76715127      762256470      935657364      627082399
     44.00000000      153213145     -139531254     -135563984      -20030678
     48.00000000      -64974874     -353087612     -668720338     -680442280
     52.00000000     -225263108      508343174     1100786755     1154602296
     56.00000000      574929636     -346174644    -1096426602    -1253966659
     60.00000000     -745810542       92519611      759705690      909057119
     64.00000000      569910132       60582935     -262529739     -275230952
     68.00000000     -110895474      -23576074     -137793844     -363464591
     72.00000000     -447073969     -212302020      296952194      783393222
     76.00000000      903959037      502863616     -232669027     -882665927
     80.00000000    -1054463556     -655113939       69149566      674559051
     84.00000000      845656078      552501999       54821974     -316738485
     88.00000000     -378734960     -208101235      -23361910       -7283516
     92.00000000     -150441673     -269029344     -170805685      164060029
     96.00000000      549054388      689442055      424925055     -146528076
    100.00000000     -693865283     -879596282     -579072090       28025805
    104.00000000      584295238      770306727      534746743       65397953
    108.00000000     -324237797     -432225339     -269308832      -37591145
    112.00000000       69514225       -3616571     -130297316     -128284169
    116.00000000       75685662      362337923      506096889      347664879
    120.00000000      -74111988     -526339372     -716042447     -508020444
    124.00000000       -7278295      484050384      683400964      495637968
    128.00000000       73810898     -309473513     -434489218     -291089124
    132.00000000      -41055769      110579042       84584285      -37859071
    136.00000000      -97331345        7528547      221120015      370000129
    140.00000000      293530731      -17902559     -389986358     -578913908
    144.00000000     -433996033      -30364514      393560466      580884791
    148.00000000      436862476       74637460     -266592841     -398403821
    152.00000000     -286572335      -56373493      117211144      134675380
    156.00000000       32552568      -59655641      -32618985      110602563
    160.00000000      248664291      232398623       19823407     -271747451
    164.00000000     -442862320     -362161820      -53798960      292960787
    168.00000000      472639599      380317111       91497145     -214090259
    172.00000000     -355005485     -282715779      -70047621      117027846
    176.00000000      165895041       76546728      -34709418      -56324828
    180.00000000       40552669      161988167      180956233       43980858
    184.00000000     -176751882     -330255672     -297203388      -78545063
    188.00000000      203509704      376522254      342414513      113414552
    192.00000000     -163092581     -323685147     -274929980      -79288412
    196.00000000      114857987      177790218      101957854      -22959183
    200.00000000      -70557414       -9176451       98965343      144436921
    204.00000000       62230959     -110393040     -250584119     -252770502
    208.00000000      -88408273      150781742      320251439      301662576
    212.00000000      109191996     -138121479     -283595289     -253051710
    216.00000000      -81033271       95887447      168754268      114940133
    220.00000000        5217193      -62945295      -36173880       47288209
    224.00000000      102158887       60884389      -62625020     -185884423
    228.00000000     -205853887      -85205478      114731263      263170763
    232.00000000      261706667      102231894     -112433324     -250789469
    236.00000000     -235268361      -92385606       79229857      167838020
    240.00000000      133660653       33817979      -53195952      -58826361
    244.00000000        2451864       61923911       52666316      -34330723
    248.00000000     -134075268     -161447968      -73502841       82549366
    252.00000000      213210296      221790309       99389364      -87969398
    256.00000000     -218980983     -216712444      -96214104       62114470
    260.00000000      158462863      141757911       49149027      -44994460
    264.00000000      -68528498      -26116366       33155659       44974307
    268.00000000       -8360729      -90090131     -123602629      -68925759
    272.00000000       52707186      167875386      188353203       94778625
    276.00000000      -63102664     -185165530     -194269496      -94271144
    280.00000000       51334919      146672382      139847702       52725108
    284.00000000      -35285623      -74860904      -47282568       11635926
    288.00000000       41803386       13240732      -51487274      -93636271
    292.00000000      -64740561       28962268      125596659      153734841
    296.00000000       83888681      -44162985     -150064460     -165988908
    300.00000000      -88580736       34398931      125906176      133820864
    304.00000000       63867078      -29766503      -83069004      -66563658
    308.00000000       -6160793       40497894       31446919      -20015824
    312.00000000      -62866542      -51828433        9251235       83394678
    316.00000000      111630280       70102020      -23453718     -114358147
    320.00000000     -139846388      -81487586       30209393      117610738
    324.00000000      130442992       59137348      -31022796      -86955930
    328.00000000      -75125530      -18881514       33045832       41874864
    332.00000000       11484170      -30508969      -40154605      -11843853
    336.00000000       47580980       83471288       62025975      -13261060
    340.00000000      -93617471     -117815898      -66908066       30444842
    344.00000000      103794783      110903052       52752372      -27326800
    348.00000000      -80519467      -78781882      -30763176       26755768
    352.00000000       51452544       33769002      -11960078      -38336987
    356.00000000      -23112331       25170015       62201124       47147822
    360.00000000       -9862971      -72264817      -90983080      -52121634
    364.00000000       21224893       81737392       96990945       52762282
    368.00000000      -19805609      -77796868      -81812928      -37657597
    372.00000000       24756589       55787321       40686328         637299
    376.00000000      -30679961      -25055014       10095853       40877454
    380.00000000       38813191       -1291943      -45379361      -67719590
    384.00000000      -47211216        7945908       68728432       85483546
    388.00000000       52978897      -14776293      -70011571      -77663410
    392.00000000      -35958470       18395320       53224220       46117957
    396.00000000        9017943      -23194978      -29614422       -6791459
    400.00000000       24458946       33576356       12453219      -27903680
    404.00000000      -56403275      -43818664        3389976       54748788
    408.00000000       73090947       45478045      -11350975      -57941029
    412.00000000      -68325299      -36567838       15018873       50947765
    416.00000000       48196800       14866051      -20544679      -33141751
    420.00000000      -15391813       13913401       27780821       13641397
    424.00000000      -15712922      -41358824      -36520852       -1398670
    428.00000000       38750829       59544756       40096702       -5310104
    432.00000000      -48889637      -61437112      -37544463       10683805
    436.00000000       44944871       47093406       16149757      -16625493
    440.00000000      -33848118      -19980368        4186556       23135358
    444.00000000       17267914       -7986843      -30358985      -30822750
    448.00000000       -5958064       29796769       47809586       36835802
    452.00000000        -911083      -40434524      -54054061      -32495208
    456.00000000        9281786       41899687       45594503       19689402
    460.00000000      -13468128      -30863040      -22735375       -1544673
    464.00000000       18952328       18036507        -589751      -20892065
    468.00000000      -27110931       -9261176       21115086       39138134
    472.00000000       32586446         442406      -32300042      -46453487
    476.00000000      -31424146        4608748       35131766       42290586
    480.00000000       22442534       -9045322      -29536409      -27320297
    484.00000000       -4504305       17042680       20982638        7367863
    488.00000000      -14877053      -23224285      -12374939       13928557
    492.00000000       29866603       25998143        1919495      -26283604
    496.00000000      -38962844      -27333389        3803091       31628799
    500.00000000       38339799       22390147       -6044600      -29181834
    504.00000000      -27330446       -8185949       13266877       21669053
    508.00000000        9547464       -7217794      -17886483      -11790193
    512.00000000        5963907       20903888       22878877        4343172
    516.00000000      -18518714      -33716312      -23981479        1900439
    520.00000000       27969128       36055325       22615518       -5012575
    524.00000000      -27468059      -28060768      -10979686        8394160
    528.00000000       17627739       14141094       -3637192      -13530072
    532.00000000      -12652284        1532582       17839909       17886193
    536.00000000        3180770      -16983296      -30174959      -23422177
    540.00000000        1587441       23018906       32109011       21874565
    544.00000000       -4032504      -24993277      -27461889      -14381805
    548.00000000        5896234       17978750       16219367        2915018
    552.00000000      -10302004      -11740563       -3282793       12532736
    556.00000000       15716043        5066659       -9698208      -23931230
    560.00000000      -17816981        -531035       18600475       27719611
    564.00000000       19484897        -337892      -21844960      -26063021
    568.00000000      -14787247        4068246       17859132       16544617
    572.00000000        7216840       -6718027      -12367008       -5876567
    576.00000000        6082366       11453101        6242493       -5228506
    580.00000000      -16075775      -14097201       -2100018       13957508
    584.00000000       23458286       15519570        -355183      -19010819
    588.00000000      -24099473      -13109449        4506578       16761732
    592.00000000       17105007        7858243       -4980701      -12062109
    596.00000000       -8475981        1452310        9307040        7459356
    600.00000000       -2660841      -11604689      -11401390       -3576938
    604.00000000       11105850       18674527       15188052        -915564
    608.00000000      -15348163      -20217817      -11897977        1156612
    612.00000000       13963438       17185642        8601358       -1939255
    616.00000000      -10971388       -9937289        1161374        7669048
    620.00000000        6970612        -181325       -8092564      -10902890
    624.00000000       -3595716        7743630       13871835       11400393
    628.00000000        1232196      -11430443      -18635013      -13867528
    632.00000000       -1077135       10880292       15771731        9093593
    636.00000000           9240      -10395090      -10926154       -2266793
    640.00000000        4946301        6427053        1820232       -5726268
    644.00000000       -7207707       -4932608        2906754        9369171
    648.00000000       11844548        2144530       -7429057      -15024487
    652.00000000      -11446493       -2023576        9173206       14328582
    656.00000000        9470950        -691591       -7901214       -8987055
    660.00000000       -4885508        1463251        5103791        2186445
    664.00000000       -1221751       -3729343       -4282903         714448
    668.00000000        8360314        9966324        1035415       -6003634
    672.00000000      -11128893      -10342930        -391889        6471354
    676.00000000       12157518        9239489        2295154       -6704749
    680.00000000       -9008110       -5537326         576551        4199963
    684.00000000        4280515         672453       -2531521       -2853168
    688.00000000        1265247        5705911        6080773        4065875
    692.00000000       -4446369       -9791002       -8609312       -2068236
    696.00000000        5293362       10431516        9416527        2926603
    700.00000000       -4152243       -8400196       -8758488        -295961
    704.00000000        4264620        4627882        1481528       -2881451
    708.00000000        -766607         158930        3434320        5307950
    712.00000000        2012658       -2236077       -7434844       -7238917
    716.00000000       -4311129        3600469        9465781        8666897
    720.00000000        2991922       -3119717       -8406061       -7316226
    724.00000000       -2181140        3169147        3509972        3049081
    728.00000000        -186643       -1803042       -2116989         833384
    732.00000000        3603601        3326783        -863140       -4123134
    736.00000000       -5931307       -3997982        2740646        5838553
    740.00000000        6028249        3638579       -3942932       -7463548
    744.00000000       -6481662       -3703606        2406733        5965342
    748.00000000        4366091          90798       -1352036       -1638793
    752.00000000       -1171504        1973833        2263081        -913255
    756.00000000        -948041       -3818338       -2434047         685560
    760.00000000        4235868        6656419        4496925       -1170181
    764.00000000       -6365790       -6036354       -2672907         439512
    768.00000000        5782771        4300164        2763688        -903097
    772.00000000       -2514963       -1259247        -944028        2894543
    776.00000000        1565428       -2413384       -3521878       -2811589
    780.00000000         249041        1876926        5591777        2595741
    784.00000000       -1083917       -3126759       -5722010       -2998402
    788.00000000        1119912        4415219        5117468        2217275
    792.00000000       -1196707       -2198519       -3194424        -993619
    796.00000000         950588        2960321         181552       -1691405
    800.00000000       -2692675        -365634         920422        3832358
    804.00000000        2400462         744888       -3908059       -5503813
    808.00000000       -4619981        1345657        2198126        3983655
    812.00000000        3449488         619366       -2448051       -2160989
    816.00000000        -805312        -339942        1685854        -865915
    820.00000000       -1603453        -631270        -972411        2181222
    824.00000000        3151187        1580109         136910       -4260349
    828.00000000       -5019845       -3839722       -1360319        3312045
    832.00000000        3651952        4309381        1923448       -2743779
    836.00000000       -4857185       -3016068        -878502         571142
    840.00000000        1187972        1848015         423809         385329
    844.00000000         930821        1436602        2270626         614116
    848.00000000       -2240412       -3935313       -2295286          -6245
    852.00000000        2959213        4140935        5259021         669114
    856.00000000       -1919087       -3776260       -3377507       -1870458
    860.00000000        2879956        2638455        2971606        1384925
    864.00000000        -429140       -1364281         735234        -408983
    868.00000000         962188       -1217615       -1781624       -1916378
    872.00000000        -506205        2416709        4015779        3105017
    876.00000000         438309       -2237111       -4833414       -3331185
    880.00000000       -1098560         587588        3769792        3676713
    884.00000000        1812498       -1319423       -2142640       -1878561
    888.00000000        -204674        -405811         545368            496
    892.00000000       -2585852        -992487        2112032        1724608
    896.00000000        1846465        1687197       -1568846       -3965970
    900.00000000       -3833297       -1184286        2395084        3211091
    904.00000000        2451890        2835983         154583       -1835067
    908.00000000       -3164854        -962725        -741582         681262
    912.00000000         561545        -679500         334925        -760269
    916.00000000        -236515        1192736         255811       -2333989
    920.00000000       -1965010       -3072486       -1720044        1597560
    924.00000000        1783939        3304105        1496262        -694548
    928.00000000       -2525956       -2212085       -2594193         273035
    932.00000000        1950628        2080385         704406        -926920
    936.00000000       -1186100        1339404        1106131        1764641
    940.00000000        -172757       -1390697       -1921448        -638450
    944.00000000        1204684        2620356        3171764        1300470
    948.00000000         250790       -3521622       -3935405       -1711019
    952.00000000       -1072798        2632130        1567979         449364
    956.00000000        -203709        -898747       -1498473         234991
    960.00000000        -516160        -342483        -439894       -1132820
    964.00000000       -1038864         297678        2109984        2107044
    968.00000000        1058724       -1107928       -1776149       -1785523
    972.00000000       -1262933        -147763         893152        3370790
    976.00000000        2971962        -104329        -591208        -423124
    980.00000000        -829589        1020824        -610704        -345967
    984.00000000        -914388         355496        1139228         280762
    988.00000000        1359862        2167203        -814406       -3033877
    992.00000000       -2694263       -2674573         692095        2750859
    996.00000000        1994288        1571533         315107        -783370
   1000.00000000       -1020895        -929658        -375256        -486981
   1004.00000000         103642         152098        -461727        -201889
   1008.00000000        1550031        1632406         283399        -722507
   1012.00000000       -1516992       -1770044       -1080376        -456199
   1016.00000000        2774908        1041639        2424442        1188038
   1020.00000000       -1126749       -1535052       -1475270         560700
   1024.00000000         583119        1992085        1346940         237870
   1028.00000000         397030        1043690         853372        -995619
   1032.00000000       -1108559        -505104       -2027235       -1605436
   1036.00000000         264730        1558466        1902840        1829079
   1040.00000000         179180        -185302       -1457451       -1191822
   1044.00000000         140897         889626         668641         580921
   1048.00000000           -385         458958        -932694         951407
   1052.00000000         250905         872589       -1259751       -2603931
   1056.00000000       -1034136         532079         583112         806603
   1060.00000000        1170668          22341       -1509699        -493090
   1064.00000000       -2308844       -1085312          53355        1996473
   1068.00000000         657561         145586         528718         448361
   1072.00000000        -423967         850438        -682917       -1005557
   1076.00000000       -1517132       -1526272         634281         729944
   1080.00000000        1944481         879098        -138917       -1680698
   1084.00000000       -1365282       -1921740        -872560       -1000771
   1088.00000000        1686660         676679         309698        -990354
   1092.00000000        -627162        -636498       -1191308        -467294
   1096.00000000         176193        -221310         162938          66426
   1100.00000000         912101         847566         436779         421311
   1104.00000000       -1347452       -1774090       -1292428         497368
   1108.00000000         435382        2054581        1525585         440991
   1112.00000000        -420906        -448646        -559227       -1400265
   1116.00000000        -440366        -661846         319382       -1224680
   1120.00000000         -50953         847670        2157970         470424
   1124.00000000        -625187       -1089171        -884450        -541885
   1128.00000000         189721         921215         920575        1303337
   1132.00000000         233213          -1704        -758938        -410305
   1136.00000000        -805716        -243106        -237446        -626522
   1140.00000000        -410754         378312        -394770         120702
   1144.00000000         630206        -330892       -1561188       -1277650
   1148.00000000        -591323        -747835         497475        2063533
   1152.00000000        1158965        -107968        -821576        -819100
   1156.00000000        -906218        -677343        -768639        -528285
   1160.00000000        -269304         870409         376401         384570
   1164.00000000         926253         -99784        -896743        -934633
   1168.00000000       -1244245        -492054         498511         968757
   1172.00000000        2002946        1060616         350665        -350802
   1176.00000000        -386215       -1578931        -564609         504771
   1180.00000000          89065         785967          10810        -422695
   1184.00000000         168937         316298         -55396         738682
   1188.00000000       -1042656        -783857        -665830         294930
   1192.00000000         658283         822986         851554         206392
   1196.00000000         -92158        -395075        -946720       -1150306
   1200.00000000        -665663         580052        -492963         893410
   1204.00000000         569124        -594013         207578         -84626
   1208.00000000        -500815        -916567       -1298258         320841
   1212.00000000         950687         246777         212278         303132
   1216.00000000         306278         105371        -586098        -424867
   1220.00000000        -268371         452191        -285899          39101
   1224.00000000         142812        1005329        -642288         244701
   1228.00000000        -522979        -673268        -271510         -93107
   1232.00000000         285171       -1126167         475955         809035
   1236.00000000        -262059         390644         -61026        -953368
   1240.00000000        -747946         333984         347437         281789
   1244.00000000         773690          94944        -848283        -516199
   1248.00000000         313676         -35129         -26471        -659889
   1252.00000000          46066         103294        -483474        1397191
   1256.00000000        1240464        -419852        -320717       -1065454
   1260.00000000        -761862        -179979         115826         420034
   1264.00000000         970323         765223         688181        -203815
   1268.00000000        -648796        -514087          62468         127581
   1272.00000000        -420730        -386102         498839         110195
   1276.00000000         433241        1020835         164506        -147488
   1280.00000000        -541592       -1066362        -694355       -1000404
   1284.00000000          34788        1152436         832354         199224
   1288.00000000         551924        -342227        -190650        -187469
   1292.00000000       -1179126        -551450         -73368        -673191
   1296.00000000         656547        -426624         360990        -591635
   1300.00000000        -879032        -633347       -1149173        -170392
   1304.00000000        -871167         358959         929928         721265
   1308.00000000           7382         967134        -354376        -201264
   1312.00000000        -886240        -494174        -435323         300694
   1316.00000000         374675         330516         369965         439865
   1320.00000000         256634          46926        -620245        -407984
   1324.00000000        -478902        -189506         227399         472811
   1328.00000000        1028852          78804        -620489         -86192
   1332.00000000        -767216        -519087         -30195        -302407
   1336.00000000         261270        -134406        -496990         311452
   1340.00000000        -161384          48630         886495        -906566
   1344.00000000       -1465642        -204190         -21477         898043
   1348.00000000        1483445         212513         762899         455675
   1352.00000000         -45235          74995        -941597         -70492
   1356.00000000        -510996         186884         -35661         974763
   1360.00000000           -261         443575         -61900        -981090
   1364.00000000        -779590        -855685        -862156          63697
   1368.00000000         -38837         626765         419921        -142678
   1372.00000000        -295370        -125967        -626145        -259412
   1376.00000000        -243081        -442477         287043         392769
   1380.00000000         574892         423318        -106270         260738
   1384.00000000        -143880        -969482        -255605        -885855
   1388.00000000         579400         -36768         606939         368103
   1392.00000000         190527        -914428        -337041        -972814
   1396.00000000        -634039        -334377         109680         -52507
   1400.00000000         627441         -29308         628831         245960
   1404.00000000        -485607        -544769        -109012        -228271
   1408.00000000          -1442         367689        -505196         475128
   1412.00000000         242669         272420         243856       -1292152
   1416.00000000         845984          20173         239296         -58312
   1420.00000000        -528746         284104         123942        -665584
   1424.00000000         596044         -95752        -313342        -704226
   1428.00000000        -304728           2021         -11276         121754
   1432.00000000         345661         548318        -410176       -1009139
   1436.00000000        -448063         561040        -458785        -239878
   1440.00000000        -324915         264316         290289        -184475
   1444.00000000         308336         183271         803445        -393379
   1448.00000000          63116        -167437         436166         -34914
   1452.00000000         555706         357354         842042         324026
   1456.00000000         293355        -187253        -188722         173963
   1460.00000000        -407652        -387928        -403862         -54147
   1464.00000000         350333        -359771        -196814        -252489
   1468.00000000         427453        -427466        -291496        -275279
   1472.00000000        -243439        -176036         -43395          91908
   1476.00000000        -170089        -141973        -565553        -447906
   1480.00000000         120461        -274056         240980         194505
   1484.00000000         485107         539413        -746498        -218614
   1488.00000000        -847145        -871132         -39484         -88052
   1492.00000000         595085         398396        -252426         167481
   1496.00000000         -95970        -411385        -459158        -741349
   1500.00000000         112577         180936         610605         439215
   1504.00000000        1058456         -23286          23119         196142
   1508.00000000        -248533        -545894        -361616         538901
   1512.00000000          23609        -102417         622828         498749
   1516.00000000         140853        -165086       -1268232        -107505
   1520.00000000        -270628        -114229         531011         416282
   1524.00000000         329534         201116        -303657          60428
   1528.00000000          -4566        -677219        -613415        -458691
   1532.00000000         392095         227389         800233         -26182
   1536.00000000         458926         365074        -682038        -138648
   1540.00000000        -722619         -48671         810618        1292224
   1544.00000000         994961         859272          -6222         284415
   1548.00000000        -795893        -741897        -979951         727251
   1552.00000000         284619        -589680         308790         155747
   1556.00000000         503932           9336            991         -89156
   1560.00000000        -173380        -757120        -420686        -198507
   1564.00000000        -115619        -149822         616899         818290
   1568.00000000        -779822         121351        -536586        -514872
   1572.00000000        -512517        -378815        -412296        -162050
   1576.00000000         306352          38522        -326719         382722
   1580.00000000        -811388        -444513        -924715        -666337
   1584.00000000         702772         -94894         856837          43627
   1588.00000000         522212         159542         -71428         219963
   1592.00000000        -217844        -413024         155949          54344
   1596.00000000         -37225         569307         -46031         193991
   1600.00000000          -9299         -44207          -7582        -463434
   1604.00000000        -519004         163441        -460339         508818
   1608.00000000         660670           8771          70139        -313660
   1612.00000000        -481761        -628189          52184         478040
   1616.00000000         488199        -290920         251199         581573
   1620.00000000         554561        -322650         515426        -801778
   1624.00000000        -301100         325988          85080         191944
   1628.00000000         176408         -69550          88020        -153671
   1632.00000000        -155447        -258157        -651929         153966
   1636.00000000         526730         309034         528264         267973
   1640.00000000         387480         -58454         196403        -150464
   1644.00000000         138677         105219         -23109         157944
   1648.00000000        -351310         537914         -54164          85770
   1652.00000000        -261715        -453892         211898         231521
   1656.00000000         268771        -155412         154238         220351
   1660.00000000         322379         350766        -525366         262656
   1664.00000000        -210233         294196        -172210        -331504
   1668.00000000        -309719         130252         143589         169879
   1672.00000000        -514127        -330242        -430201         -33243
   1676.00000000         236640        -140514         539811         690943
   1680.00000000         275811        -507566        -454725        -190997
   1684.00000000         111184         336955         356903         106313
   1688.00000000         -14186          26222         489167        -367956
   1692.00000000         -48148          25329          16161          50525
   1696.00000000        -461966         258528         608666         -18391
   1700.00000000         292116          80948        -341436          99068
   1704.00000000        -647390         561915         143872        -323075
   1708.00000000           3838         577755         -23104         473869
   1712.00000000           2286        -567733         189170        -506882
   1716.00000000          75944        -276857        -136912          86606
   1720.00000000         199132         560255        -214265        -414215
   1724.00000000        -305139         -21267        -293067         191480
   1728.00000000          15615         306317         389457          24965
   1732.00000000        -234770         606417        -158237         370831
   1736.00000000         -51645          68167        -292909         -80425
   1740.00000000         495934        -138078         126240         295141
   1744.00000000        -149659         -16270        -150163         589173
   1748.00000000         206302         177102           1948         -24595
   1752.00000000           8225        -333401         -42614         -66668
   1756.00000000        -250214        -328004         528050          64717
   1760.00000000        -125019        -175518        -298686          69234
   1764.00000000        -175564        -350320        -487574        -254253
   1768.00000000        -220254        -304128         -36806         111868
   1772.00000000         211931        -162539         -37759        -419164
   1776.00000000        -398473         171513        -353159         138877
   1780.00000000         370637        -161562         -18450         -53495
   1784.00000000         -59999         -66162        -428683        -653982
   1788.00000000         -30139         -96950         302803         289248
   1792.00000000         -58668        -160973         267852          58744
   1796.00000000        -470064        -248083        -347627        -109299
   1800.00000000        -147699         163435         172311         146816
   1804.00000000        -156438        -182206        -314318         -90846
   1808.00000000         160769         309509         201684        -367281
   1812.00000000         555052         396097         220665         356223
   1816.00000000        -173656        -276164         -93648          41400
   1820.00000000        -489397         -32637         -36039         -35963
   1824.00000000         259441         560228         178529        -274205
   1828.00000000        -309858         140368         245031        -183316
   1832.00000000         260017         273111         167296         323407
   1836.00000000        -257865        -326543         108104          -6934
   1840.00000000        -139927        -121905        -104330        -164371
   1844.00000000        -201021         577152         166466         -23937
   1848.00000000         -93832        -231066          36102         -85173
   1852.00000000         293269         280862         688749        -236254
   1856.00000000          28384         101535        -481222        -196004
   1860.00000000          43709        -155571           9540        -118987
   1864.00000000         387585          82856        -240093         239037
   1868.00000000        -106000          75425        -676288          24394
   1872.00000000        -311244          78467         147015        -165616
   1876.00000000         406174         -23515          12784        -327283
   1880.00000000        -335262         229367        -287067         291284
   1884.00000000        -142072          43849          -2271        -421157
   1888.00000000         -20151           4140        -435570        -378644
   1892.00000000        -257365        -244684         137539         274787
   1896.00000000         163759         106316         101338         168808
   1900.00000000         461180         469604        -218169         270816
   1904.00000000         314393        -254286        -317241           1161
   1908.00000000          40806          37367        -103816        -399917
   1912.00000000        -513148        -553630         236280         230623
   1916.00000000        -183248          31711          -7580         137299
   1920.00000000        -252426         -20634          59785          23016
   1924.00000000        -223248         -34566         351183        -460981
   1928.00000000        -180569         173902         179868          34877
   1932.00000000        -105364          61753         127912          13401
   1936.00000000          20319        -299570         -75636         706300
   1940.00000000          88355         127952        -141019          43223
   1944.00000000        -117399        -201475         -60154          16264
   1948.00000000          43879         615905         329885         198507
   1952.00000000          65025         -45927        -207359        -123475
   1956.00000000         -56247         -72603         122711         113455
   1960.00000000         -96920          27579        -195165         -58314
   1964.00000000        -401826         -48507          22946         130576
   1968.00000000        -184724         -59206        -299540         292496
   1972.00000000          43270        -184604          13173        -126448
   1976.00000000        -441985        -130415         158025         308121
   1980.00000000          77583        -316335         -63589        -173645
   1984.00000000        -425545          64501        -202468          65206
   1988.00000000         240104          61102          85489         240410
   1992.00000000          24447         398353        -163161        -131252
   1996.00000000         112994        -259318         -80571        -194641
   2000.00000000        -469409        -129504         -93877         182220
   2004.00000000         350257        -199441         196206         465190
   2008.00000000        -286294        -101862        -219244         226249
   2012.00000000          68786        -100140         110591         161884
   2016.00000000        -358156         -18646        -104460        -253634
   2020.00000000         140889         -82577        -318419        -105339
   2024.00000000         311706          30944         369508         206093
   2028.00000000        -121165         143107        -211269         -18894
   2032.00000000         -24186         277597          20825         235540
   2036.00000000         -27271        -136604         -48080        -177630
   2040.00000000         -27694          46514          47351         208574
   2044.00000000         194363         142556         -36124          48424
   2048.00000000        -103712          73801        -247628         -58188
   2052.00000000         158548         -28948        -203674         375957
   2056.00000000        -123581         237270         266806          11040
   2060.00000000          59025         -30914         100395         334878
   2064.00000000         175828        -225707         103057         -63496
   2068.00000000         347063         -97473        -197164        -310680
   2072.00000000        -241708         206655         122756         233372
   2076.00000000         208594         -72168          83525         102746
   2080.00000000         -10020         104461         243972          25706
   2084.00000000         130836          93016         314437         205025
   2088.00000000        -267495        -225037        -118673          -7064
   2092.00000000         -60525          33565          80021        -224865
   2096.00000000        -252624         584068          24399        -224758
   2100.00000000        -111408         162640         -71971         128453
   2104.00000000        -153202         -55182          -2872           2324
   2108.00000000          62666          34870         202671         178725
   2112.00000000        -128889        -252693         224092         149314
   2116.00000000        -284484         201714        -224897          38442
   2120.00000000        -123451          30970         192711        -226942
   2124.00000000        -131957         -90440          54386         217400
   2128.00000000         220145         124815        -170638          64203
   2132.00000000        -235169         -97766        -153007         -95258
   2136.00000000        -244801        -140387         -50817          61088
   2140.00000000         357209         129401          70499         -45939
   2144.00000000        -188541        -235787          27810         -70511
   2148.00000000          93003         231584           4991          51571
   2152.00000000          82341        -228760        -292616        -159769
   2156.00000000         -25978        -195508         -47375         189520
   2160.00000000         128222          20320          69583         218292
   2164.00000000        -327509         257565         -79029         171093
   2168.00000000         150605           5033        -211071        -198215
   2172.00000000         349769         -83675        -179045         -64080
   2176.00000000         114437        -327418        -212820         258141
   2180.00000000         135208         126248          57498          63279
   2184.00000000          59481         499791        -297813         -52646
   2188.00000000         -51900          89002          63718          88652
   2192.00000000          98628         351983         117159         137358
   2196.00000000         -34267         -69163        -166864          12989
   2200.00000000        -189623         363635          77430         168575
   2204.00000000         220459         159282        -193185          62396
   2208.00000000          83404         122216          88259         503505
   2212.00000000         233363          26332        -270329          88364
   2216.00000000         195487         244529        -137696         -87368
   2220.00000000        -158601        -150240          10599         183347
   2224.00000000          70763         -64326        -244266         144272
   2228.00000000         242463          73360         -80185         192484
   2232.00000000           9965        -104602        -200433          81967
   2236.00000000         262785        -246069          48260         185485
   2240.00000000        -351508         318416          89216        -203228
   2244.00000000          54659         331821        -190945         -86144
   2248.00000000        -122958        -179202          27477         -98304
   2252.00000000          92735           4174         -20679          -9100
   2256.00000000          10982          10180         205407          23328
   2260.00000000         -78023        -252865          61662         -43265
   2264.00000000         -56265         -93308         151034         156677
   2268.00000000        -325298         186284          74422        -120117
   2272.00000000          19861          52048         -21811        -206560
   2276.00000000        -146720         -95727         -46511          19134
   2280.00000000         247280         186803          -5941          -4111
   2284.00000000          39499         -57301        -216759          34207
   2288.00000000         -63263          61881         -49150          73644
   2292.00000000         -22325          17591          72375        -267379
   2296.00000000        -110333        -141964         109015        -113434
   2300.00000000         108550         -23605          39252         205381
   2304.00000000         159748          43470        -141441          -5475
   2308.00000000        -254525          48521        -153678        -187598
   2312.00000000         194032          54927         234613        -196019
   2316.00000000          50700         220460         -33056         -45941
   2320.00000000        -201297          63479         180445        -106276
   2324.00000000        -105461         -41437        -118036         133403
   2328.00000000          48140        -101065          43840         -51377
   2332.00000000        -210513         318570         -48766          68144
   2336.00000000         242597        -104765         103608         125275
   2340.00000000          62906        -200263        -208815         -76720
   2344.00000000         -30008          28024          49717         -71100
   2348.00000000         -74227         155066        -155373         -36039
   2352.00000000          95360         116518         104070         -75289
   2356.00000000         135607         -85878          92124          73525
   2360.00000000         167572          55193        -169537         -34599
   2364.00000000         220962         -17542         189982         -71692
   2368.00000000          17600        -157727        -101765          69412
   2372.00000000         -11352        -151719         -56488        -111655
   2376.00000000         -31853          53577         -37170         115995
   2380.00000000         -79019          82732         175972         -49462
   2384.00000000           5829        -130887          -2497          56398
   2388.00000000          59916        -279645          40589          36634
   2392.00000000          47994         140407         105402        -139497
   2396.00000000         -35486          72937         128646          75679
   2400.00000000          47549         119033         -16513        -169613
   2404.00000000         -27947          83820         -49009          16028
   2408.00000000         108718           6573         123263         -99457
   2412.00000000         -85921         310362         101385          32603
   2416.00000000          58365         196579         -45147         227682
   2420.00000000         -61161           8970        -128920          20383
   2424.00000000          52585        -108241         139146         158653
   2428.00000000          36826         171323          -6798        -102794
   2432.00000000         212322         -45522         163368         -12057
   2436.00000000        -194230         -55784         -34928          88984
   2440.00000000         -44481           5457          16110         162567
   2444.00000000         180289         -23542          47952        -105540
   2448.00000000        -144287         -17047          -9379         -56178
   2452.00000000         165754         -34821          32130          57311
   2456.00000000         -11754        -107053         134663         -43321
   2460.00000000         103479        -125539         115626          76517
   2464.00000000          56129         -32976         -68874          44816
   2468.00000000         132911        -127909         -34601         -39921
   2472.00000000         -50968        -180550          10827           2743
   2476.00000000        -165890        -173978          57138         125994
   2480.00000000          61227          33785          42584        -101658
   2484.00000000          20746         109963         292747         156263
   2488.00000000         144880         115999         142397         142241
   2492.00000000          34422         -48282           9251         110952
   2496.00000000        -112570          71624         167177        -143340
   2500.00000000          -8163         -35538          31940          29024
   2504.00000000          99598         -22613          33423         -94697
   2508.00000000         -10656          21445         -23137          52170
   2512.00000000         -65303          60814         -68576          55624
   2516.00000000         -54501         -22644         -12993         -63980
   2520.00000000          81193        -101508          16139          77537
   2524.00000000          16522           8267         136732         -76186
   2528.00000000          69187        -175739        -131439          54713
   2532.00000000        -140237          63114         -62764         218947
   2536.00000000         -82641          64844          89551          64587
   2540.00000000         123499         -28176         -23709         -23864
   2544.00000000         -51020          57602         137817         166542
   2548.00000000         -82743         -28704         -13367          41957
   2552.00000000          40414           5074         -35208          33840
   2556.00000000          -4905          66861            949        -120621
   2560.00000000          36117        -109707         -12670          80249
   2564.00000000          -4097         -45382         -12983        -153442
   2568.00000000         118030         -24565         122274         -83011
   2572.00000000         -61116          -1208         -89832         135754
   2576.00000000        -104703          21575         -92105         -94878
   2580.00000000         -30714            760         129911          20740
   2584.00000000         -81906         -69576           5561         -56162
   2588.00000000         117584          51273        -138844         -73236
   2592.00000000         -55227         -35781         -20074          -7591
   2596.00000000         -46870          55071          -3904         -11689
   2600.00000000         -17871        -117655         129099         -11916
   2604.00000000          88269         -40474           7220         -39378
   2608.00000000        -107996          96384        -108839        -107278
   2612.00000000          95304         -63891        -107926          -1614
   2616.00000000        -195344        -137236         -22001        -131707
   2620.00000000         -11177         -90726          62832          -4924
   2624.00000000          94386           1609          87014         -61174
   2628.00000000         100085          -4946         -89037          83043
   2632.00000000         -36198          23826         -27475         114572
   2636.00000000          48927         -98056          56414         -16975
   2640.00000000         -42839         270298         -55917          75813
   2644.00000000         -13587          -8454         -46909          36790
   2648.00000000          22510          83514         -91862          -2988
   2652.00000000         -16673          50737         -24216          77451
   2656.00000000         -78736         103085          17942         -10209
   2660.00000000        -117377        -116007         144899        -110411
   2664.00000000          85742         -12082        -168887         -67538
   2668.00000000          -2238         -77884          91188         -64470
   2672.00000000         -35034         -53012          20100         -33460
   2676.00000000         -34358           8750          28789         -98387
   2680.00000000         165182         -86189         -92432          99297
   2684.00000000          61835         137766         103519         107421
   2688.00000000          70236         -30362         172430          63521
   2692.00000000          56044         -35286         -98412        -103664
   2696.00000000         -75524          55473         100358          74038
   2700.00000000         137888         -15974          37876          25800
   2704.00000000        -123563          92782         -83719          -1071
   2708.00000000          18202        -133460          31050           6145
   2712.00000000           9992          83849           7662         112966
   2716.00000000         -54694         -57670        -159278          63104
   2720.00000000         -11763          91325        -103798          58181
   2724.00000000          34570         -42171          -1339        -150731
   2728.00000000          39904          57758         -46681          52164
   2732.00000000         -10519         -43560         -65257          12185
   2736.00000000         -72174         -39490          52932         119035
   2740.00000000          27346          -8107         -45526         -47585
   2744.00000000         -36577          28431          53084         131593
   2748.00000000         -69348          37354         191875          53870
   2752.00000000         102149         -58410         -34105         -28981
   2756.00000000          12416          53266         -20643          12825
   2760.00000000          90689         105902          32848          55461
   2764.00000000         -95644         -15034          70211          37156
   2768.00000000         -17807         -53055          22097         -25606
   2772.00000000         -10060        -113614          17908         -55305
   2776.00000000         -59644         104352            893         -16109
   2780.00000000           7059          39211         -45028        -111479
   2784.00000000          -3636          10134         124919         -72735
   2788.00000000         -24565          75182        -106104         112065
   2792.00000000         170134         -30602          17102           1516
   2796.00000000           8087          28838        -138428          79416
   2800.00000000         -11850         102736         -54584          42476
   2804.00000000        -134916         -94080          -2858          81454
   2808.00000000         -55350          83202         -93156          78569
   2812.00000000          13011          19200         -26036         -68039
   2816.00000000         -69984         -85201          35252          -4141
   2820.00000000        -152379          29344          24998          48094
   2824.00000000          -1690           9942          53623          72448
   2828.00000000         -75244          -5506          26665         -60255
   2832.00000000         -19079          86585          50241          45280
   2836.00000000          16741          -2525          15524         -11642
   2840.00000000        -114654          54939         -62623         -57650
   2844.00000000          60170         -98832         -15393           7446
   2848.00000000         -47176           5567          18821          15433
   2852.00000000          33114         -77684          25800          22254
   2856.00000000         -54267          70990         -32905          23934
   2860.00000000          51150          89670           8331           1162
   2864.00000000           3117         -70421         121555        -135569
   2868.00000000          47016          37878          68496         132133
   2872.00000000           4576          -1918        -138979         -35311
   2876.00000000        -114587         -30598         -73705         -10110
   2880.00000000         100569           7683         -40665         -23599
   2884.00000000           8822            350         -25150          36613
   2888.00000000         -41362         -32458         -53570         -85155
   2892.00000000          52293         -31633         -41313           1508
   2896.00000000        -137033         169604          25141          64198
   2900.00000000         -17620         -28860         141491         -37875
   2904.00000000          58006          -2577          74434          40912
   2908.00000000          28972         -37557          63960          39207
   2912.00000000         -21943         -91289           6377         -25593
   2916.00000000          81156         133639         -24624          36833
   2920.00000000          24288          33910           2424          17678
   2924.00000000          50067          -1538           7663          -1298
   2928.00000000         -63721         -11216         -25673         -66794
   2932.00000000         -24781          29436         -40050         -40872
   2936.00000000          60765           1958         -16831          34556
   2940.00000000          23237          -2342         -33207          65820
   2944.00000000         124811         -21623         -27358          -3304
   2948.00000000          61265         -15729         -64640         -31470
   2952.00000000         100422          23803         -44887          -3764
   2956.00000000          46513         -38084          43223          -8448
   2960.00000000          86496         -18779            991         -29606
   2964.00000000         -97876           4073          55286          37445
   2968.00000000          -1563          22595          19706         -10961
   2972.00000000         -32677           1140         140345          18787
   2976.00000000         -22322          42074          -6985           4879
   2980.00000000          -3823        -130886         -31871          76241
   2984.00000000         -17416          -7068          19310          72730
   2988.00000000          -6388         -71710          37370          33333
   2992.00000000          57088           5702          34227          11867
   2996.00000000         -27944          51406         -42400          42170
   3000.00000000          29442           7678           -759         -33737
   3004.00000000          -5864         -35604          19385         -77394
   3008.00000000          -6335          14130          55548          57051
   3012.00000000          68597          34697          79701         -25098
   3016.00000000         -15509          38865          -4200         -22300
   3020.00000000          10009          25563          29592          38902
   3024.00000000          78336           6990          -3413         -36644
   3028.00000000          18237          25118          40610          82965
   3032.00000000          54018        -104073          19483           8453
   3036.00000000         -96546          23108          -8102          31735
   3040.00000000          76485          40342          26724          40600
   3044.00000000           2428          70106           5641         -28879
   3048.00000000          22499          35903          -3888         -34307
   3052.00000000         -18073          46169         -48440         -23563
   3056.00000000          66521          45683         -10276         -84389
   3060.00000000         -52181          12332          80824         -70957
   3064.00000000         -48948          60624          54032          40687
   3068.00000000         -42587           -410          22254          19898
   3072.00000000           5524        -125601         -17554          48176
   3076.00000000         -56566          57247         -58196         -42082
   3080.00000000          31584          25879         -86183         -39905
   3084.00000000          46462         -14154         -55113          27025
   3088.00000000         -22481          71202           5882         -13329
   3092.00000000          11132          47307          -7299           2652
   3096.00000000             37          91771          20121          72632
   3100.00000000          30790          56046         -18037          -6282
   3104.00000000         -24852         -13610         -54173         -22927
   3108.00000000           4596        -106335         -52644          12017
   3112.00000000          50296           6198          13005          -3502
   3116.00000000          -6554          12714         -67909         -16431
   3120.00000000         -16762          45125         -12978          29834
   3124.00000000          40579           4241           -543          -7346
   3128.00000000         -15309         -73138          26587         -91741
   3132.00000000          17954          49269          49185          54592
   3136.00000000          13621          51988         -20449         -20135
   3140.00000000          -7180          72296          34514          41784
   3144.00000000          23160         -30404         -85713           7611
   3148.00000000          -1140             50           3912          38533
   3152.00000000         -18619          93819          43480          13850
   3156.00000000          -2065          33846          58906         -34635
   3160.00000000          12274         -10521           8609          66463
   3164.00000000           5352          12544         -50903          -8034
   3168.00000000         -10222          50901          16203          25756
   3172.00000000         -46408          20654          27439          23362
   3176.00000000          20548          55000          50811          10515
   3180.00000000         -40521         -22480          65808           8324
   3184.00000000          10835          22467          39660         -37436
   3188.00000000          19213          39734         -17231         -22540
   3192.00000000          -7100          -8222         -10514          17547
   3196.00000000          60402          49921          59770         -13913
   3200.00000000          66362         -23589          46918          72520
   3204.00000000         -37775         -65844          26764          37225
   3208.00000000          26680            281          25604           3660
   3212.00000000          22271          41081          13232          68643
   3216.00000000         -31708         -63444         -29969          26938
   3220.00000000          11328          72008           7606         -22273
   3224.00000000          24538          58467         -45194         -10493
   3228.00000000          -5224          27163         -30371         -10576
   3232.00000000          23288          86895           8968          23556
   3236.00000000           2791         -66062          47810         -63738
   3240.00000000          -6221           2584          12817         -24376
   3244.00000000         -46027         -65663          86695         -13573
   3248.00000000          20649          -7600          15884         -20148
   3252.00000000          -5955         -10005          65560           6898
   3256.00000000         -53246          26188          56640          46779
   3260.00000000          52643         -24499          43839          37306
   3264.00000000         -16446           6786          59521          37656
   3268.00000000          47003          27985          -5890          -3469
   3272.00000000          24184          -1316         -20234         -43561
   3276.00000000          24767          38151          38153         -33161
   3280.00000000          -4614         -70564         -25379          -5321
   3284.00000000          29879         -21748         -19663          63632
   3288.00000000          47306         -17366         -47802          71490
   3292.00000000          21945           2022         -12850          34465
   3296.00000000          37019          19535         -60484           5256
   3300.00000000          50056          35240         -51234         -21533
   3304.00000000         -32197          30550         -39071           3900
   3308.00000000         -13948          26757          24944         -49425
   3312.00000000         -43686           8617         -19297          -4665
   3316.00000000           7759           8086          23242         -16910
   3320.00000000          46305         -10897          71234           9591
   3324.00000000         -54414          -3213          56609         -32438
   3328.00000000         -28061          13134           2902          68385
   3332.00000000          15772           8372          23961         -11874
   3336.00000000           5092          -2272         -43643          16927
   3340.00000000          -5338         -39690         -14936          -9916
   3344.00000000          16826          31569         -46286          -3590
   3348.00000000         -30851          16188         -27799         -15321
   3352.00000000           9612          30640         -27826         -29975
   3356.00000000         -60922         -64099          20192         -47016
   3360.00000000         -21087         -10523          -9739          29281
   3364.00000000           3543          63254         -17493         -49866
   3368.00000000         -33733          21363          22757          -9220
   3372.00000000          -5742          34297           9278          23899
   3376.00000000          46732         -14694           1925           4449
   3380.00000000           1530          22642          26147          -7904
   3384.00000000          16094          -7420          31946          -2642
   3388.00000000          32786         -50276         -55356         -13239
   3392.00000000         -37467          19421          23669          59944
   3396.00000000          -5571         -19840         -20728          17845
   3400.00000000          51761         -74385          29446         -33330
   3404.00000000          -7179          23967         -19580         -15019
   3408.00000000         -25677          18359         -31058          78077
   3412.00000000         -23003          11228          25588         -11576
   3416.00000000          25169          31549         -15863          72108
   3420.00000000         -24547          -5684            550          -6416
   3424.00000000           9972          36468         -25143          36947
   3428.00000000         -16253         -45112          27476         -22171
   3432.00000000         -40711         -12725         -38325          22652
   3436.00000000         -60371         -36676          10023          -7173
   3440.00000000         -41169          14095          54149           3408
   3444.00000000         -18567         -51792         -43827          -5851
   3448.00000000         -19170         -17821          25371         -25813
   3452.00000000          27471          -4181         -15793         -20314
   3456.00000000           7148          14764         -24996          23416
   3460.00000000         -17615           9002          34667          -2919
   3464.00000000          15048           4174          43239         -33936
   3468.00000000         -40084           1374          -6472          22414
   3472.00000000         -39377          14848         -23968          18080
   3476.00000000          19534         -31971          -2394         -33627
   3480.00000000           6293          23321           4299           1747
   3484.00000000         -45860          -6849         -21620          -3435
   3488.00000000          -3744          50069           5373          55266
   3492.00000000         -12513         -24082         -25573         -10844
   3496.00000000          32676         -40515           8876           7531
   3500.00000000          15456          44326          12697         -79945
   3504.00000000          19975           1949          16850          15253
   3508.00000000         -41289          11836          24797         -15514
   3512.00000000           1185         -37392          12735           8843
   3516.00000000         -23163          -8229         -49591          -7064
   3520.00000000          -7627          52241          22046          10534
   3524.00000000          -7866         -11182          27860          29400
   3528.00000000          10380          14556          29879          37431
   3532.00000000           4328          38452          47496           1990
   3536.00000000           9634          25425          -7693          19231
   3540.00000000         -23942         -29532          26874         -39706
   3544.00000000          -5746           6681           2003          20547
   3548.00000000           5236          36737          -3206         -27348
   3552.00000000          -4576         -13837          14684          12679
   3556.00000000          15185         -12760         -17132          39070
   3560.00000000          26180         -15519          20744          36715
   3564.00000000           4163         -24774         -18627           6314
   3568.00000000          39151           2864          21061          24218
   3572.00000000          33687          40918         -31506         -16398
   3576.00000000          10406         -14092          15067         -19468
   3580.00000000         -30293          18718           3254          35325
   3584.00000000          31446         -14284          37235          -4583
   3588.00000000          27841         -26629          -1485          -4614
   3592.00000000          58837         -20449         -15305          26820
   3596.00000000         -11915          24557         -15234           7770
   3600.00000000          32669          11720         -14672         -19074
   3604.00000000          16458          32715          39953         -11627
   3608.00000000         -42884           9580          27647          12458
   3612.00000000           9392           7530          10753          47242
   3616.00000000          11779           6045          24534           5924
   3620.00000000          15983         -14722          30705          31944
   3624.00000000          12155          50095           3089           6923
   3628.00000000          25162          23401          -7701          16113
   3632.00000000          -1903          26151         -10340          20892
   3636.00000000          33942          22211          37912          12596
   3640.00000000          24414          11422         -20011         -15034
   3644.00000000         -23996         -41393         -68311          43665
   3648.00000000          29281           6406           -403          15748
   3652.00000000         -26838         -10599          10826           9728
   3656.00000000           9045          -4914         -11750          -5812
   3660.00000000         -11172          12181         -16398          22681
   3664.00000000           9588           1453          16135           8966
   3668.00000000           1539          30672          18064            539
   3672.00000000          -2911          -9047         -12756          24974
   3676.00000000          14080         -18876           6593           2667
   3680.00000000          17723          30854           4164         -29607
   3684.00000000          -9693         -15460          25317           9570
   3688.00000000          18842           4971          14267           1604
   3692.00000000          -1711         -22047          31160          -6145
   3696.00000000         -15962           -483          32313          15371
   3700.00000000           -721         -10035         -18652           7679
   3704.00000000          13264         -17377         -15817           8185
   3708.00000000          21226          -5286          38090          10347
   3712.00000000         -24312          -3474         -14326         -35465
   3716.00000000          17074         -17545          -4908           8797
   3720.00000000         -19899          11696          22972          32869
   3724.00000000          22264          13070          -4483          -7775
   3728.00000000           3969          -2665         -36785         -28664
   3732.00000000           7768          26177         -23204          -9532
   3736.00000000         -26744          -7943         -14186           6425
   3740.00000000         -21050           5925          23770            481
   3744.00000000         -13909          24637          18621           2052
   3748.00000000         -22697          -2859          33785           4105
   3752.00000000         -45280          16340         -18652           3839
   3756.00000000           9240         -17455           -951         -20839
   3760.00000000          18325           9545          32131          -4854
   3764.00000000           4403           6871          -6603         -30974
   3768.00000000           4651          21968         -14064          -4815
   3772.00000000          28040          10744          22511           5850
   3776.00000000         -20491         -22449         -33891          24145
   3780.00000000          25742         -13043         -27044          13790
   3784.00000000          17514          13673          37640          16792
   3788.00000000           9477          -3475           7002          35997
   3792.00000000           -584           8909           8488          22224
   3796.00000000          21132          25218           4783         -17344
   3800.00000000          -5603          14130         -29339          35916
   3804.00000000           9157           7039          -5366          20425
   3808.00000000           9690          47151         -19166         -11437
   3812.00000000            585          -3750          -2729           3264
   3816.00000000           9229           8790         -15496           1944
   3820.00000000          -1237          -7253          -3842          18392
   3824.00000000          18682          -1183          -6691           9306
   3828.00000000          -6124          20840           -596         -14447
   3832.00000000           6636         -10610         -18588         -16845
   3836.00000000         -12771          26827         -18279          17237
   3840.00000000          -9618          32132         -15209           8125
   3844.00000000         -11702         -12840          12926           7174
   3848.00000000          29912         -21476          10808          -6846
   3852.00000000          -7787          10062         -21912          14693
   3856.00000000           6594           8626           -654           9966
   3860.00000000           6094         -14399          -8689         -12462
   3864.00000000          36404          17523          -2251           1308
   3868.00000000         -15184          12585          -4751            803
   3872.00000000          17793          -2951          27972           2593
   3876.00000000         -18976         -18703          -4890         -18164
   3880.00000000         -17486          21721           3781           4118
   3884.00000000          17476          23114           5271           2385
   3888.00000000           9996          -5762          12842          -5535
   3892.00000000          12520           5977          -9077          10945
   3896.00000000          -8318          26299           8840         -11864
   3900.00000000          -6510          21644         -14334         -24837
   3904.00000000           9145           2554         -10718         -35458
   3908.00000000          -7298         -18066           -685          19577
   3912.00000000          15134          16357          31955          11843
   3916.00000000           8627          -1695          12063          -3167
   3920.00000000          28311         -12169          27358         -14877
   3924.00000000          20633            435          -9093           6696
   3928.00000000          -1292          13124          15858          -7303
   3932.00000000          17383           1478          -2576          14912
   3936.00000000          19983           6891          -4981          35026
   3940.00000000           5676           3183          15806         -12152
   3944.00000000          20430          15069          -4651           4078
   3948.00000000           5500           1074         -17048          18503
   3952.00000000         -31241           5447         -24092         -11660
   3956.00000000         -18236          14152         -25496         -33597
   3960.00000000          15289          22136          22441          33671
   3964.00000000         -26445           5356           4581          -5032
   3968.00000000            696         -10096          -4969          -7304
   3972.00000000          -8855          19711           6931          25792
   3976.00000000          -6568          -7679          -6278          -2975
   3980.00000000          -1791           8730          10331          19451
   3984.00000000         -14216         -11500         -13416           9534
   3988.00000000          13342          -7984          -8008          -8417
   3992.00000000         -17854          -4014          -4332          22049
   3996.00000000          16749         -20830         -13587          -6260
   4000.00000000         -16834          -2328           7931           1218
   4004.00000000         -13360         -29979         -11892          -5973
   4008.00000000           1028           9242          20370          12842
   4012.00000000          -5344          -1990          24144           8538
   4016.00000000         -13167          28556           9501          -4763
   4020.00000000         -11190          -2187         -24269          -5490
   4024.00000000           2593         -10828          -3368          -5912
   4028.00000000          19255          13190         -16967           4937
   4032.00000000          -6202         -14640          -1855           9120
   4036.00000000           1450          12408         -15058          -5153
   4040.00000000            109           1392           1993           5669
   4044.00000000           3465          -2165           1435            510
   4048.00000000         -22973         -22342          -5796           -563
   4052.00000000           5227         -11760           8888         -11803
   4056.00000000         -16710           -170          18942          19733
   4060.00000000         -23120          10883          -2870          -1562
   4064.00000000          10953         -18019         -15066           6745
   4068.00000000         -16675         -11244           2137          11164
   4072.00000000          10812           3337         -15865          24811
   4076.00000000           9380          -4657         -18181         -23370
   4080.00000000          17218          -4956          -4099          -9427
   4084.00000000          38841          -3735           5541          10581
   4088.00000000          -2025            306         -12631           2589
   4092.00000000           3846         -23822          -5305           9885
   4096.00000000           9828          -2211          31597           7017
   4100.00000000           9052          10220         -12531         -22053
   4104.00000000           9586          -1518          16167           2220
   4108.00000000         -10586          -3958         -11266          10575
   4112.00000000          11317          26428          -1793           1105
   4116.00000000          -9298          -7467           1529          -4171
   4120.00000000          -8105         -10252          29521           5456
   4124.00000000             46           -816         -19191           2830
   4128.00000000         -11109           5910          15103            776
   4132.00000000         -28846             86           3902          -5100
   4136.00000000           9353           7672           9203           8854
   4140.00000000           3836          12227          10335          10012
   4144.00000000           9083           6918           6871          21032
   4148.00000000           4540          -2729          -4111          -2206
   4152.00000000         -12460         -20865         -19773           7255
   4156.00000000           5619          -1473          11521            350
   4160.00000000          -5708          -3214          -3507          -6617
   4164.00000000           3096          -7342           7664           8239
   4168.00000000          -4400          -4423           7059           6509
   4172.00000000           9641          -3535          -3872           1356
   4176.00000000          -8644            972          -6735           5042
   4180.00000000          -9511         -13112          18912         -11312
   4184.00000000         -19223           1136          -8342          10712
   4188.00000000           7054           7514          -2315           4671
   4192.00000000           6671          16722          -1476          -2016
   4196.00000000          12596          17579           8046           -764
   4200.00000000          -1632          -2210          12200           2180
   4204.00000000          -9903           -406          -9505           7102
   4208.00000000           5614          -8949          10159           7987
   4212.00000000          -8687           9933           3976          -5271
   4216.00000000          -3046          17105           7435          -3913
   4220.00000000           7544          -2923         -16816           6357
   4224.00000000          -1825           -652          11326           1562
   4228.00000000           9530           5776          13201         -15138
   4232.00000000           7438          -4705          13087          -2921
   4236.00000000           9253           2067          -2782          11019
   4240.00000000          -9308             56            495           4709
   4244.00000000         -11975         -15672          -9791           -866
   4248.00000000          -8234          -6293          -1620           6216
   4252.00000000           8358           4504           7117          -2662
   4256.00000000          11371           -908           2593           1814
   4260.00000000         -10703           3224           6774           1587
   4264.00000000           1051          -4748            230           5789
   4268.00000000          -6781         -17194          13414         -24704
   4272.00000000          -4254          -2005            321          12322
   4276.00000000           1780         -12277           3808          18492
   4280.00000000          -6954          -3991           2695           2277
   4284.00000000           3777           2104          -2237          -1129
   4288.00000000          -6681           5254           2623          12296
   4292.00000000           1133         -12815           5916           8001
   4296.00000000           8056           8769         -11575          -8445
   4300.00000000           3061           3461           3688           2240
   4304.00000000          -3787           1675          -3900           3347
   4308.00000000          -4849           8176          -4179          -5904
   4312.00000000           6901          -5025         -19204          12072
   4316.00000000           1369           1052          -7637          -4844
   4320.00000000          12812           6166          14666          -3169
   4324.00000000          12364          -7297           4113           4552
   4328.00000000           7190          -1353           8031          -1160
   4332.00000000         -13605           4049           -329          13939
   4336.00000000          -3851           1229           1578         -10143
   4340.00000000          -5014           3087          -7006           6530
   4344.00000000           6511          -4187          12917           1766
   4348.00000000           3650          -6842           2315          21373
   4352.00000000          -7297         -10242         -10261          -1289
   4356.00000000           6509           5418            141          -7624
   4360.00000000          -1168          -9146          -1106          -1804
   4364.00000000           1079          -2006          -2175          17987
   4368.00000000          -8955         -18381          -1228          15910
   4372.00000000          -7508           -198           -544          -1065
   4376.00000000           7189          14021           -270           9531
   4380.00000000         -12263           5820          -7450           2427
   4384.00000000            381         -12653          15706          25057
   4388.00000000          -4864          -1477          -9477           2788
   4392.00000000          20770           5953          -8375           8963
   4396.00000000          12193          10213           1235          -2976
   4400.00000000         -11124           5000           2990           6790
   4404.00000000           2122           5763           1762            496
   4408.00000000           1645           1133          11191          -9862
   4412.00000000          -6242          -7538           5025          -2791
   4416.00000000         -13190           5654          -7498           7347
   4420.00000000          -3511          -2694           3925           8595
   4424.00000000            495          -3680           1295          -2030
   4428.00000000            478           3196           5329          10953
   4432.00000000          -8144          -5887            492           2443
   4436.00000000          -3645          -6644           9607          -5102
   4440.00000000         -15282           6390           1678           4686
   4444.00000000           7330          -6069           4275            813
   4448.00000000          -9785          -8298           2240          -3265
   4452.00000000            978           7380            819          -5123
   4456.00000000          20356           2889          -9677           1990
   4460.00000000          -3911          -5221           4805          -6354
   4464.00000000          12579          -3321          -2122          13412
   4468.00000000           1562           9847          -4119          -1507
   4472.00000000          -5773            300            310          -4278
   4476.00000000           4452          -3942            140          -5701
   4480.00000000          -4318           -891           3830            396
   4484.00000000          -6128         -13414          -9732          -3346
   4488.00000000          -3180          -6205           3718           9916
   4492.00000000           5319           -481            523         -16946
   4496.00000000           5916           7343           4696           8852
   4500.00000000            558          -2055          -6620          -6399
   4504.00000000           3127           3812          -5397          -3625
   4508.00000000           8160           -484          -2676          -3234
   4512.00000000           1099           8862          -7165          -1979
   4516.00000000           7011          -7718           2400         -13177
   4520.00000000          -2648           -753           -844           8841
   4524.00000000          -7563         -10855           7135          20619
   4528.00000000          11710          -2347          -9901           -736
   4532.00000000         -10704           4198          -4760          -1753
   4536.00000000          -8301         -10828         -11867          -1649
   4540.00000000          -5298           2655           6915           8801
   4544.00000000           4356          15196          -7182           8079
   4548.00000000          -2507           5364          -7674          -5298
   4552.00000000           5297           1366           2851          -8089
   4556.00000000           3253           4040            313         -10434
   4560.00000000            458          -5669          -8810            830
   4564.00000000           2277          -4184            934          -6922
   4568.00000000          -7534          -3043           2281          -4342
   4572.00000000           3436           4803           8953            561
   4576.00000000           -333           6944          -3032           6932
   4580.00000000          -7568           2543           4456           3273
   4584.00000000          12039             69           4408          -2271
   4588.00000000           9395           8655           5277           1310
   4592.00000000            425          -5263          11176          -5474
   4596.00000000           9020           5856           3203          -5544
   4600.00000000          -5147           2446           1265            571
   4604.00000000          -5642          -1103            191           8981
   4608.00000000           3469           3426          -7060           -938
   4612.00000000           5506           6089            158           3474
   4616.00000000           1046          -8485          -4008            450
   4620.00000000            736           6111           5758          -5616
   4624.00000000             19           6272           3614           4795
   4628.00000000            953           2492            227          -3919
   4632.00000000           8378          -4470           1144          -6742
   4636.00000000         -12708          -4070          -5614          -5086
   4640.00000000          -7041          -1013           -331          -5619
   4644.00000000           1213         -12902          -8302          -3931
   4648.00000000          -3866          13234           9343           -952
   4652.00000000           4747           6145           2520           5097
   4656.00000000           2786          -4020           2009          -1578
   4660.00000000          -7471           2706           3904          -1857
   4664.00000000          -3690           3312           5009           6355
   4668.00000000          -6450          -7864          -1203           4929
   4672.00000000          10725           2760          -4208             21
   4676.00000000         -11323           1935          -1719           4743
   4680.00000000           -725           2390          -2332          -3422
   4684.00000000           2967         -10797          -8503          -6118
   4688.00000000          -2439           4273          -6296          -4350
   4692.00000000           -558          -4927          -4846            952
   4696.00000000           4037          -1674           7109          -1554
   4700.00000000          -1696           -698           -722          -6679
   4704.00000000           3414           1627          -6707           6415
   4708.00000000            949           3274           6863          -8834
   4712.00000000          -5656            630           1259           1426
   4716.00000000           1084          -2910           3612          -2141
   4720.00000000          -5094         -11787           6760            642
   4724.00000000          -6795           1882          -6432         -17717
   4728.00000000          -4158           6860           -153           3848
   4732.00000000         -10247          -1420            280          -2321
   4736.00000000           5013          -8424          -3213         -11038
   4740.00000000           2185          -4811          -1503            -47
   4744.00000000          -6587            715          -2800         -13555
   4748.00000000          -8495           6014          -5668          -1335
   4752.00000000          -2576           3140            594           2431
   4756.00000000           9838          -3471          -3166           2587
   4760.00000000          -1474          -3947          -2499           6260
   4764.00000000          -2178          -2798           3783           4316
   4768.00000000          10491            966          -4149          -1389
   4772.00000000          -3106          -5343          -2967           -477
   4776.00000000           2269          -7077          -5005           3084
   4780.00000000           4791          -5061          -6754          -7430
   4784.00000000           2249           7490           4090           6744
   4788.00000000          -4968           4502          -4757          -3947
   4792.00000000           1864            706           3710          -2342
   4796.00000000           2034           4567           2918           2415
   4800.00000000          -5315          -1713          -2818           -214
   4804.00000000          -1591          -8595            403          16766
   4808.00000000          -4318           1066           3524          -4249
   4812.00000000            805           5074          -4445           6144
   4816.00000000          17162          -4269           2340          -7892
   4820.00000000            709          -1878          -4025            565
   4824.00000000          -4404           3531           2925           -833
   4828.00000000           6515           1969           6911          -1110
   4832.00000000          -1925             65           -523           6121
   4836.00000000          -2856            384           -283            134
   4840.00000000            828            649           2263          10356
   4844.00000000           3505          -7546          -1519          -3080
   4848.00000000           1811           8495          -6084          -1954
   4852.00000000           4446          -2424          -1597           1594
   4856.00000000          -1147           7838          -2415           3774
   4860.00000000           5889          -1403          -3373          -1340
   4864.00000000           1836            756           -340           5273
   4868.00000000           3057           4197           9761         -12144
   4872.00000000           -740          -4813           2063           6567
   4876.00000000            403          -1620            676          11070
   4880.00000000            299           3155           -429           7407
   4884.00000000          -4586           6082            200           3030
   4888.00000000          -1141            228          -3151          -4665
   4892.00000000          -3659          -2645          -7749           2335
   4896.00000000           -220          -5662           -911           -495
   4900.00000000           2648          -1346          -6323           4656
   4904.00000000           2558         -11536           1494          -2912
   4908.00000000          -1255           1832            -30          -1112
   4912.00000000           3225          -5152           1181          -2625
   4916.00000000            888           9881          -2647           -719
   4920.00000000          -4194          -3343           5819           1825
   4924.00000000           -239          -2721          -1206           3145
   4928.00000000           -359          -5076           5429            159
   4932.00000000             50          -2507          -3807           -836
   4936.00000000          -4061          -4192           4157          -6503
   4940.00000000           3588          -8882          -4582           2684
   4944.00000000           1494           3131          -8274           4676
   4948.00000000          -5638          -9310            370           5727
   4952.00000000            944            470            734            165
   4956.00000000            461          -3419          -3093          -2551
   4960.00000000           -270           6789           5440            281
   4964.00000000          -3438           -110           3689           1184
   4968.00000000           2828          -3756          -6973          -1290
   4972.00000000           2871          -1080           2501          -1180
   4976.00000000          -6818          -3617           1340          -1632
   4980.00000000           3443          -7029          -2491          -4183
   4984.00000000          -5043            558            -98           4364
   4988.00000000          -5664          -1530          -4464          -1111
   4992.00000000          -5030           1383           3800            797
   4996.00000000          -2489           3081          -7082           1937
   5000.00000000          -1687           -905          -7104          -2642
   5004.00000000          -1030            622           -644           -249
   5008.00000000          -4111           -896           3637          -3583
   5012.00000000           9574          -5961            725           -777
   5016.00000000          -3323           -767            923            164
   5020.00000000           2571           -663            354           3028
   5024.00000000          -5715          -2711           -785           3433
   5028.00000000          -3082           -344           1366           -994
   5032.00000000           3745           -182           1139          -1710
   5036.00000000          -3500           2796          -8408          -4641
   5040.00000000          -5219          -6658           2732           -174
   5044.00000000           1849           3692          -4114          -4941
   5048.00000000           1589            202          -1579             15
   5052.00000000            710           2116           -287           -260
   5056.00000000          -1403           3447           3909          -4189
   5060.00000000          -5829         -10779          -5782          -6412
   5064.00000000           4514           4446           1700          -1449
   5068.00000000          -6279           -757            969           -112
   5072.00000000          -3983          -1105           3317           -333
   5076.00000000            882           1376            256          -2436
   5080.00000000          -3404           -380          -2593           2241
   5084.00000000           5776           4809           -694           -866
   5088.00000000          -2705           2512             72            602
   5092.00000000          -2336             63          -2611           1619
   5096.00000000           3041          -4304          -2055          -1904
   5100.00000000          -4318          -3301          -5993          -1509
   5104.00000000           -194          -5846           2354           -464
   5108.00000000          -4005          -1762            632           -159
   5112.00000000          -1472          -3023           1203          -3734
   5116.00000000            630           3038          -6057           -390
   5120.00000000          -4734          -3416           6468           5757
   5124.00000000          -4467           1883           4767           3567
   5128.00000000          -2638           1074          -1250          -1750
   5132.00000000          -2207            944           3588          -1487
   5136.00000000          -2420           -798           1869          -2096
   5140.00000000          -2854           1518           -267          -1725
   5144.00000000           5878          -1417          -1270           2755
   5148.00000000          -4316           2298             56            -61
   5152.00000000           4250           -602           6253          -2397
   5156.00000000          -4763          -2135           -561           4566
   5160.00000000           2930           5603           1621           -939
   5164.00000000            810          -4488           1464             -9
   5168.00000000           4425           1254           -835           2097
   5172.00000000          -2700          -3002          -3377           1488
   5176.00000000           1418          -3304          -4763           1038
   5180.00000000          -3225          -4610          -1568           1466
   5184.00000000          -3067          -1526          -3108          -3176
   5188.00000000           2382           1605           1664           1404
   5192.00000000          -7552           3056          -1228          -3777
   5196.00000000            425            870          -3193           1114
   5200.00000000          -1137          -2703           -155          -5578
   5204.00000000          -2738           2558            129           2360
   5208.00000000          -2545           -731           3374          -5695
   5212.00000000           1857          -2303          -1095          -2618
   5216.00000000           1337          -1543            624          -1219
   5220.00000000          -2513            500          -2819          -4293
   5224.00000000            787           -568            925           2047
   5228.00000000            925           2278            530          -4753
   5232.00000000          -3020           4354           1482          -1659
   5236.00000000          -2676          -6163           2030           2419
   5240.00000000          -1689            588           4071          -3291
   5244.00000000           2215           1072            194           -407
   5248.00000000           3468           6799          -2924          -5369
   5252.00000000          -2970           2109           -700          -3315
   5256.00000000          -2782            410          -4100            833
   5260.00000000          -3689          -4384           3370           3355
   5264.00000000          -2121          -2343          -1004           1606
   5268.00000000          -3117            340          -1072          -4821
   5272.00000000           3798           1871          -5162           -186
   5276.00000000           2259          -1768          -4223          -2476
   5280.00000000            -81           3417            115          -2911
   5284.00000000            317           -235           -421          -2423
   5288.00000000           5544            324          -2389            511
   5292.00000000          -1403          -1934            -10            -60
   5296.00000000            220          -5861          -1195           2579
   5300.00000000          -2770          -2913           4023           2614
   5304.00000000          -2585           1644          -1594           4344
   5308.00000000           3055           1340          -1254           2136
   5312.00000000          -2682          -3406            -41             -4
   5316.00000000           1296           1346           -595          -3502
   5320.00000000           2711          -1956          -2157            538
   5324.00000000            287           2987           3322           1324
   5328.00000000           -773            636           -307           2486
   5332.00000000           -684          -1969            472             37
   5336.00000000           1537            187          -3602            686
   5340.00000000           -926           -324          -1521           2050
   5344.00000000           1019           1269           2128          -2940
   5348.00000000          -1010          -1358          -2400          -3063
   5352.00000000           -997            667            791          -2724
   5356.00000000          -1605          -2042             -4           1989
   5360.00000000          -1068           -476          -2821          -2070
   5364.00000000          -3113          -1483          -3121           3164
   5368.00000000          -3325           -519           2379          -2200
   5372.00000000           -666          -1069              2           -206
   5376.00000000           -636            -80            468          -4919
   5380.00000000          -4561             36          -2083           1182
   5384.00000000           1609            329          -4386           3139
   5388.00000000          -1110          -3633           -364          -3120
   5392.00000000           1162            509            186             26
   5396.00000000           3230          -1149          -2383          -1047
   5400.00000000          -1543           1721          -1529           2280
   5404.00000000           2541          -2354          -3438           -734
   5408.00000000           3088          -4308          -2613          -2472
   5412.00000000           -232          -4910           3632           1177
   5416.00000000          -3084            -87           -818           -648
   5420.00000000           2303          -1632          -3595           1508
   5424.00000000           1499           1324          -1153          -1646
   5428.00000000          -4028           4063          -3184           -952
   5432.00000000          -4236          -3888           3547            775
   5436.00000000           1881           -725          -3641           1197
   5440.00000000           1165          -1262          -1469           3444
   5444.00000000           1459           1942           1009          -1689
   5448.00000000           2175           2542          -1432           -607
   5452.00000000           -873            596          -1983          -1321
   5456.00000000          -4691            235          -2152              8
   5460.00000000            186           -291          -2238           -407
   5464.00000000           -401           -850           1264           -294
   5468.00000000          -1396            -33           2582          -2567
   5472.00000000           3123           2344          -1913           1037
   5476.00000000           1249           1135           2289          -2656
   5480.00000000          -3745          -2065          -1439           2176
   5484.00000000           -548           -202            533           1461
   5488.00000000          -2927          -1706            466           3702
   5492.00000000          -1065           -328           -189           2900
   5496.00000000           2186           -238            801             83
   5500.00000000          -4534            709           3911           -522
   5504.00000000           2152          -1668            606           -840
   5508.00000000          -1690          -1490            605          -4190
   5512.00000000          -1651            268            324            118
   5516.00000000           1956          -1952           -136           3306
   5520.00000000          -1601           2019           -267           -728
   5524.00000000           1708           1277            858           -506
   5528.00000000           -669           2956          -1173            812
   5532.00000000           -165            605          -3049          -1045
   5536.00000000          -2268           -542          -4026            932
   5540.00000000           3454             91           -148           3386
   5544.00000000           4537           2315            480          -1134
   5548.00000000          -1153            354          -2325           2417
   5552.00000000          -2088          -2136            141           4362
   5556.00000000          -1789          -1373           -759            608
   5560.00000000          -2266            181          -5232           1404
   5564.00000000          -2427           -311            965            -30
   5568.00000000          -2543           1044           2960           -120
   5572.00000000          -1653          -2462           -172          -3125
   5576.00000000             48            765            905           1437
   5580.00000000           -240           -518            542          -2351
   5584.00000000          -2270           1528           -905             45
   5588.00000000            169          -1146           1384           1309
   5592.00000000             30           -829            318          -1353
   5596.00000000           1604           -279           -355          -2003
   5600.00000000          -1745          -3384           1615           -631
   5604.00000000          -1574          -2587           1380          -4135
   5608.00000000          -1344           -190           1218           -505
   5612.00000000           -595          -3782           -938          -1331
   5616.00000000            749           1050            956           1274
   5620.00000000          -1079           -440          -2081            832
   5624.00000000          -1685            -49            502           1462
   5628.00000000           1439            -20          -3018           -996
   5632.00000000            259          -2016           -171           1651
   5636.00000000          -1146          -1252           -821          -4095
   5640.00000000           1337          -2632          -2379          -2812
   5644.00000000          -2107            426           -268           3755
   5648.00000000            485           -416          -2025            203
   5652.00000000          -1180          -1307           1627          -3328
   5656.00000000            593            906          -2071            803
   5660.00000000           -770          -1372           -967            734
   5664.00000000          -3361          -1567          -1327           3823
   5668.00000000            980             73          -2836           1235
   5672.00000000           -256           2373           1400           -272
   5676.00000000           -429           1845            146           3515
   5680.00000000          -1567           2376           -214          -1003
   5684.00000000            511          -1200          -3761          -3146
   5688.00000000           1686           -753          -2518           -340
   5692.00000000          -1545          -2275           -509           -637
   5696.00000000          -1164           -137           -811            129
   5700.00000000           2066          -2489             45          -1016
   5704.00000000          -1947           -164          -1355           1173
   5708.00000000          -1697           1630           -472           1088
   5712.00000000           1989           1295          -1537            132
   5716.00000000           -950          -1124           -367           -319
   5720.00000000           -593           1819          -2875           1944
   5724.00000000           1158           -897          -1967           1519
   5728.00000000          -1879          -1655            666            826
   5732.00000000          -1495          -1350            578           2516
   5736.00000000           -297           -383          -2514          -2953
   5740.00000000            428           1362           -663           1101
   5744.00000000          -1898            874            378            109
   5748.00000000            301          -2304          -1634           -599
   5752.00000000          -2919           -882          -1885            592
   5756.00000000           1843           -384            283           -627
   5760.00000000           -630          -1749           -469           1206
   5764.00000000           1527           -300            783            141
   5768.00000000           1313          -1263          -1719          -2281
   5772.00000000          -1364           1668           -405          -1177
   5776.00000000            623          -2945            710            -67
   5780.00000000          -2991          -1321            334           -357
   5784.00000000           1257          -2626            129           -120
   5788.00000000          -2874           1270            672          -2291
   5792.00000000          -1292           -518            374           1527
   5796.00000000           1110           -191            881          -1147
   5800.00000000           -998           2226           -225          -1601
   5804.00000000           -156          -2111            251           -887
   5808.00000000             62            729           1756           -319
   5812.00000000            602            228           -908            -19
   5816.00000000           1398           -128            483           -242
   5820.00000000          -1065           -462          -2126            808
   5824.00000000          -1219           -370           2387           -231
   5828.00000000            650           -319            217           1166
   5832.00000000          -1038            909           1438           1569
   5836.00000000           -835           -561            967            310
   5840.00000000           1122           -435            162            -36
   5844.00000000          -1018          -1376           -806            354
   5848.00000000          -1869            679            716            768
   5852.00000000          -1145          -1917          -1483            397
   5856.00000000          -1001           -163          -1529          -1741
   5860.00000000          -2534           1439          -2543            629
   5864.00000000          -1512            390          -1640           -696
   5868.00000000            298          -1124           -352           -756
   5872.00000000            135          -2005          -1086             79
   5876.00000000            574           -600            974           -836
   5880.00000000          -1265           -227            103          -1111
   5884.00000000           -351           -493            -49           -687
   5888.00000000            254           -314           -887           -815
   5892.00000000           -338           -720           1110            171
   5896.00000000           -411          -1302           -576           -439
   5900.00000000            618           -480           -895            360
   5904.00000000            738          -2197          -2059          -1238
   5908.00000000           -319            495           -503           -593
   5912.00000000          -2266           2192           1858           -794
   5916.00000000            469          -1083            112             -3
   5920.00000000           -364             65            677          -2007
   5924.00000000           -313           -753           1260            615
   5928.00000000           -198           -537           -487          -2577
   5932.00000000           -522            222           -926           1364
   5936.00000000          -1030           -474            787          -2696
   5940.00000000           -663           -874            835          -2172
   5944.00000000            297           -212          -2272           1406
   5948.00000000          -1562           -389           -587           1211
   5952.00000000          -1966           -941            394           -233
   5956.00000000           -575           -219           -902           -321
   5960.00000000            376           -339          -1660          -1776
   5964.00000000          -1027           2225           -280           1307
   5968.00000000            857            258            171           -576
   5972.00000000            474           -921          -1456           -479
   5976.00000000          -1592           -358           -551          -1532
   5980.00000000           1884            124           1679             80
   5984.00000000            521           -370            -15            818
   5988.00000000            237            629            429           1328
   5992.00000000           -138           -447           -887            621
   5996.00000000            395           -178          -1647          -1572
   6000.00000000           -235           -479            884          -1017
   6004.00000000          -1297           -580            635           -288
   6008.00000000            341            124           -112            -46
   6012.00000000           1159           -942           -532           1074
   6016.00000000           -928           -442            658            -68
   6020.00000000           1470           -990          -2369           1258
   6024.00000000           -590          -2337           -396           -675
   6028.00000000           -908           -413            406            190
   6032.00000000             92            264          -1164           -691
   6036.00000000           -478          -1022            -94             83
   6040.00000000           -406            880           1343           -937
   6044.00000000          -1087          -1416           -912          -1423
   6048.00000000           -195           -543            533          -1187
   6052.00000000           -322            261          -1504          -1172
   6056.00000000             26           -390            -19             85
   6060.00000000           -234            198          -1073           1695
   6064.00000000            686            173           -201           -206
   6068.00000000           -660           1186            -57           -360
   6072.00000000           -808          -1437            297          -2117
   6076.00000000           -550            927          -1442            454
   6080.00000000          -1190            616           1445           -706
   6084.00000000            105            167           -319            749
   6088.00000000           -381          -2127          -1000           -719
   6092.00000000           -127            116             35            214
   6096.00000000          -1701            816          -1285           -573
   6100.00000000            856           1012            386           -252
   6104.00000000           -662            427          -1109           -492
   6108.00000000            188           -142           -615            802
   6112.00000000            646           -825          -1237           -291
   6116.00000000             52            146            -63           -242
   6120.00000000           -997          -1352          -1616           -351
   6124.00000000           -338           -157            532           -821
   6128.00000000             95          -1157             13           -509
   6132.00000000          -1215            256           -466           -247
   6136.00000000           -131            461            327           -329
   6140.00000000            825           2488           -469           -798
   6144.00000000           -252           -493           -403           -938
   6148.00000000           -902            449          -1642           -431
   6152.00000000           -518            732            806            -27
   6156.00000000            748           -361           -142            274
   6160.00000000            974           -224          -1576          -1141
   6164.00000000          -1213            517            174            495
   6168.00000000           -407            -55           -570           -135
   6172.00000000          -1386           -744            849           -648
   6176.00000000           1050            665           -275            933
   6180.00000000           -840           -128          -1476          -1558
   6184.00000000            116           1457            257            464
   6188.00000000           -954            440            326           -365
   6192.00000000           -526            835            548           -263
   6196.00000000            419           -648           -208           -599
   6200.00000000           -852            403          -1336           1197
   6204.00000000            410          -1526            346          -1006
   6208.00000000           -213            371           -533           -780
   6212.00000000           -651            796            -99           -195
   6216.00000000           -414           -953            987            355
   6220.00000000            477          -1071           1381           -143
   6224.00000000          -1178           -517          -1167           -805
   6228.00000000           -363            945           -441           -285
   6232.00000000            985           -298           -612            -62
   6236.00000000           -431           -167            720            480
   6240.00000000            317           -579            785           1121
   6244.00000000           -341            491            521           -367
   6248.00000000           -322           -853           -872            320
   6252.00000000           -842            247           -435            336
   6256.00000000           -128            -66            380            614
   6260.00000000            351            656            112           -263
   6264.00000000            591           -586           -588            137
   6268.00000000           -677           -216           -796           -715
   6272.00000000           -225            648           -357            -28
   6276.00000000            237           -681           -451           -556
   6280.00000000            840           -306           -123           1355
   6284.00000000            603            993           -101           -291
   6288.00000000           -338          -1000           -299             14
   6292.00000000            926            102            849           -758
   6296.00000000           -116            461            261            823
   6300.00000000            641           -134             68           -534
   6304.00000000            643           -428           -431          -1512
   6308.00000000            601           -665           -611           1142
   6312.00000000           -426             40           -818            192
   6316.00000000            253           -638           -622            566
   6320.00000000            792            310           -166            366
   6324.00000000            322           -103           -371            564
   6328.00000000           -493             13            283           -176
   6332.00000000            267           -429           -708           -172
   6336.00000000            625            274            110          -1091
   6340.00000000           -216            804          -1088            269
   6344.00000000           -443           -471            324            500
   6348.00000000          -1040            281          -1017            942
   6352.00000000           -297            -79            222           1221
   6356.00000000             55           -634            299           -402
   6360.00000000           -222            115            689            426
   6364.00000000            151            663           -343            -90
   6368.00000000            917           -134            425            -29
   6372.00000000           -275            144            657           -616
   6376.00000000            327             11           -392           -792
   6380.00000000          -1723           -466           -138            156
   6384.00000000          -1132            446           -666           1017
   6388.00000000           -974            403            210            217
   6392.00000000            368           -381           -840            135
   6396.00000000           -193           -113            703            148
   6400.00000000            165            226           -578            515
   6404.00000000            773           -530           -180           -398
   6408.00000000            270           -572            283           -213
   6412.00000000           -227            296            382             49
   6416.00000000           -425            -48            160           -375
   6420.00000000            597           -479            339            117
   6424.00000000            596           -426           -154            242
   6428.00000000           -358           -522            788            221
   6432.00000000            412            -83           -989           -567
   6436.00000000           -223           1174          -1084            128
   6440.00000000           -300           -277           -504           -556
   6444.00000000           -306            901           -561            869
   6448.00000000           -946            125            106            226
   6452.00000000            307           -168           -299           -158
   6456.00000000            710           -308           1004           1153
   6460.00000000           -877           -239           -717            476
   6464.00000000            798           -194            -33            -51
   6468.00000000           -835           -225          -1230           -100
   6472.00000000            700           -356           -435           -132
   6476.00000000            532            305            567            135
   6480.00000000            -60          -1121            239            241
   6484.00000000           -483           -450             56           -394
   6488.00000000            -39            246            499            246
   6492.00000000           -164           -439             83           -132
   6496.00000000           -429           -492           -161            482
   6500.00000000            967            588            280            -55
   6504.00000000           -504             82           -876           -447
   6508.00000000           1201           -462            122             11
   6512.00000000            181            428           -902            627
   6516.00000000           1035             74            302           -166
   6520.00000000            146           -180           -417            468
   6524.00000000            154            -17            453           -287
   6528.00000000            -56            230           -741           -774
   6532.00000000            475           -535            863            635
   6536.00000000           -127           -604             97           -228
   6540.00000000           -498           -699           -554              2
   6544.00000000            -79          -1129            543           -334
   6548.00000000            654           -407           -821            -80
   6552.00000000            165           -510            227           -541
   6556.00000000            286           -313           -326           -508
   6560.00000000            463            165            627            520
   6564.00000000           -220            748           -587             73
   6568.00000000           -208            -66            234            -88
   6572.00000000            205            297           -184            296
   6576.00000000            295           -195            202             35
   6580.00000000            -78            184           -385           -156
   6584.00000000           -668            196            713            -14
   6588.00000000            484            339           -128            -22
   6592.00000000            233            535           -478            318
   6596.00000000           -402           -699            458            371
   6600.00000000           -549           -499            287            983
   6604.00000000            195           -375           -573           -276
   6608.00000000             12            121            325           -682
   6612.00000000           -539           -547           -238           -684
   6616.00000000           -196            149            336            194
   6620.00000000           -684           -173            507            574
   6624.00000000             73           -145           -404           -357
   6628.00000000            515            231            487           -256
   6632.00000000           -463            476            357           1245
   6636.00000000            -86           -285           -416           -200
   6640.00000000           -251           -447           -309           -446
   6644.00000000            293           -250           -759            -32
   6648.00000000           -208            -25           -622           -398
   6652.00000000            340           -477            334           -183
   6656.00000000            288            361            -18           -143
   6660.00000000           -789           -376            269            448
   6664.00000000             85           -508            348           -193
   6668.00000000            -28           -162           -834            111
   6672.00000000            191            230            670           -231
   6676.00000000           -136             18           -235             46
   6680.00000000            497            256           -182             -2
   6684.00000000           -473           -372           -435           -378
   6688.00000000            161            336            110           -491
   6692.00000000             17             84            -49             27
   6696.00000000            -84           -647           -253            895
   6700.00000000            209            238            -39           -307
   6704.00000000            106             47            -66             10
   6708.00000000           -258            387           -264            145
   6712.00000000           -197             81            190            262
   6716.00000000            195            -16            631           -842
   6720.00000000            196            -40            337             -6
   6724.00000000            171            -57            153            116
   6728.00000000             65            -75           -301           -372
   6732.00000000           -329           -340           -281            336
   6736.00000000           -234             89           -342           -178
   6740.00000000           -260            171            -47            467
   6744.00000000           -609           -394            375           -255
   6748.00000000           -460             40            205           -124
   6752.00000000           -805            176            232           -480
   6756.00000000            281            185            232            -67
   6760.00000000            -19            361            -54           -425
   6764.00000000            327           -273            330            835
   6768.00000000            453            106             80           -236
   6772.00000000           -159           -314           -520            717
   6776.00000000           -440           -844             -0           -196
   6780.00000000            570           -253           -769            345
   6784.00000000             78           -218           -132           -231
   6788.00000000             95            135            151           -102
   6792.00000000            483           -119            171           -234
   6796.00000000             66           -160            132            399
   6800.00000000           -286           -336           -281            467
   6804.00000000             76           -368           -380             -6
   6808.00000000            545           -669            143           -466
   6812.00000000           -188             68           -392           -191
   6816.00000000           -140            249           -279           -376
   6820.00000000            302            -49            296           -460
   6824.00000000           -114            -55           -627            357
   6828.00000000            139            420            -52             68
   6832.00000000            102             86            -31             27
   6836.00000000            279           -622           -483           -189
   6840.00000000            438            -21              3            579
   6844.00000000            392            136            228            -65
   6848.00000000             44            707           -238           -651
   6852.00000000           -143             53            207            493
   6856.00000000            -73           -301           -217            -69
   6860.00000000            673            323           -194            413
   6864.00000000            -10           -388            524           -449
   6868.00000000             28            579           -543           -325
   6872.00000000             37           -326            265            276
   6876.00000000            -18             83           -239             42
   6880.00000000            -98           -217            -85            110
   6884.00000000            116           -129            -85            420
   6888.00000000            142             47            194           -182
   6892.00000000           -426           -636            183           -192
   6896.00000000            -35             48            307           -457
   6900.00000000             84             46           -253           -592
   6904.00000000           -409             51           -188            226
   6908.00000000            -76           -262            138           -173
   6912.00000000            -32           -200           -489           -184
   6916.00000000           -242             83             95           -121
   6920.00000000           -237             17            285            383
   6924.00000000            227            655            265           -308
   6928.00000000            368             71            429             18
   6932.00000000            -21            -89            242             79
   6936.00000000              5           -109            115            226
   6940.00000000             55            539             25            469
   6944.00000000           -149            -30           -168            381
   6948.00000000              9             16             -0            281
   6952.00000000           -333            -27           -181            167
   6956.00000000            232             60            -73             39
   6960.00000000            146            152            -37           -492
   6964.00000000             86           -145            118           -201
   6968.00000000            703            247             22           -644
   6972.00000000            -30            -74            207            539
   6976.00000000            129            -80           -202            440
   6980.00000000             68            357           -371            373
   6984.00000000            207           -200             29            -56
   6988.00000000            157            210           -351            270
   6992.00000000           -132           -104             61           -348
   6996.00000000             23            307           -148           -124
   7000.00000000             77            -77           -184            112
   7004.00000000            200            539            205             70
   7008.00000000           -193            220           -182            316
   7012.00000000            386           -401            457            -20
   7016.00000000            -53            302           -262            119
   7020.00000000            115            -47            -41           -554
   7024.00000000           -232             -8             95             -8
   7028.00000000           -167            -28            558            -86
   7032.00000000             19           -483            358            203
   7036.00000000             64             35             58            505
   7040.00000000           -345            515            196            452
   7044.00000000           -287           -189             18             60
   7048.00000000             83            513            112           -167
   7052.00000000            246             81            182           -171
   7056.00000000             27            214            -71           -546
   7060.00000000             53            -11            184            120
   7064.00000000           -152           -250           -158           -256
   7068.00000000             -5           -241            -53           -208
   7072.00000000           -131            159           -170            228
   7076.00000000             34            450             73           -147
   7080.00000000           -282            195            177            191
   7084.00000000           -149            -26             51            -42
   7088.00000000            -84            511            270            178
   7092.00000000            -72            447            -45           -245
   7096.00000000            118            377             48            -54
   7100.00000000             68            220           -324            199
   7104.00000000            200            -19           -129             31
   7108.00000000            319            252             26             31
   7112.00000000             43            448            207           -244
   7116.00000000            -31           -332            204            305
   7120.00000000           -280            197           -103             93
   7124.00000000           -436            -35            -39             13
   7128.00000000            143            172           -107              9
   7132.00000000            279            -95            270            -56
   7136.00000000            374            403            240            132
   7140.00000000            312           -319           -142             -5
   7144.00000000             19           -584             86           -252
   7148.00000000            234           -109            -85           -148
   7152.00000000            304            -81            -74            138
   7156.00000000             32           -116           -174             35
   7160.00000000            -56            173              9            318
   7164.00000000            -84            165            156             11
   7168.00000000           -247             27           -138             79
   7172.00000000            219            132             75             34
   7176.00000000              3           -229            -45             94
   7180.00000000             87             -4            -65            209
   7184.00000000            240           -151            336            203
   7188.00000000            227            326           -592           -105
   7192.00000000            175            207             78            201
   7196.00000000           -140            120            352           -107
   7200.00000000            307            -93             77             53
   7204.00000000             43             61            245            134
   7208.00000000            597            182            -28            -48
   7212.00000000           -127           -315           -188            -28
   7216.00000000             23            241            253           -277
   7220.00000000            253            245            134            287
   7224.00000000            389             83            130            492
   7228.00000000            353            -36            234            211
   7232.00000000            343            162             -7            -38
   7236.00000000            -77            220            136           -149
   7240.00000000            304            -63           -130            -94
   7244.00000000           -100           -226             64            166
   7248.00000000           -121           -183           -184           -200
   7252.00000000            176           -149           -155            127
   7256.00000000            231            162            285            198
   7260.00000000           -101            119             62             18
   7264.00000000           -186            -46            -36            247
   7268.00000000            385           -258            387           -155
   7272.00000000            136             68            112            -99
   7276.00000000           -281           -209           -238           -133
   7280.00000000            134             65            270           -161
   7284.00000000             11            -11             77            120
   7288.00000000            297            -73            223           -372
   7292.00000000            -21            275            137             77
   7296.00000000           -160            -76              3            -57
   7300.00000000             42           -219            208             45
   7304.00000000           -118            -80            303            204
   7308.00000000           -121           -125           -191            306
   7312.00000000            -45           -308            367            -22
   7316.00000000            420            261            -35            -60
   7320.00000000            -60            -61            237            213
   7324.00000000            224            -40           -283            259
   7328.00000000            -74            -58           -333           -148
   7332.00000000             42             73            -17            189
   7336.00000000            175             81           -197           -346
   7340.00000000           -215            231            295             -1
   7344.00000000            107            170             -1           -150
   7348.00000000            -88             -5             53            195
   7352.00000000            164            297             87           -105
   7356.00000000           -101            162            180            153
   7360.00000000            227           -261            -72            -75
   7364.00000000            112            435            -39            -65
   7368.00000000           -110            235            251            111
   7372.00000000           -416             27            134             66
   7376.00000000            -50             83            119            -28
   7380.00000000            154             75            334             19
   7384.00000000            399           -143             86             27
   7388.00000000            126             49             64           -127
   7392.00000000           -168           -240            264             -8
   7396.00000000            163             79             22           -154
   7400.00000000            -20           -275           -130            -30
   7404.00000000            164            -71            271            176
   7408.00000000           -283             49            -55           -235
   7412.00000000            -83           -174           -122           -168
   7416.00000000            -48             15             24              5
   7420.00000000            122             80              8            191
   7424.00000000            -83             48           -124            -60
   7428.00000000             36             80            285            344
   7432.00000000            245            183            250            -53
   7436.00000000           -129             65            -21            219
   7440.00000000           -145           -190             37            -33
   7444.00000000           -206             61             31            197
   7448.00000000             93            -99             49             56
   7452.00000000            -57            129            -45             89
   7456.00000000           -162           -116            124            123
   7460.00000000            166              3            -16             77
   7464.00000000            123             77             55             22
   7468.00000000            -68            101             44             17
   7472.00000000            118            124            128            -28
   7476.00000000             -8            126            182             24
   7480.00000000             20            -39            -71            141
   7484.00000000             -7             77            -38            311
   7488.00000000             89            -13            -99             51
   7492.00000000            109             42            224            118
   7496.00000000             11             -6             65            202
   7500.00000000            125            -18            280             76
   7504.00000000            -77              9            -57             11
   7508.00000000             48            100            162           -161
   7512.00000000           -137             18             48            207
   7516.00000000            -44              6             33            136
   7520.00000000           -182            127            -27              4
   7524.00000000            -56            -69             14            -79
   7528.00000000            228            130            -30            -38
   7532.00000000             15            124             24            103
   7536.00000000            -49            -17             48            -50
   7540.00000000             56            -94            165            241
   7544.00000000            -89             26             12            -45
   7548.00000000             56             35             -6             91
   7552.00000000              7            108              9              5
   7556.00000000             82             -9            136            -81
   7560.00000000           -115            -97            -71            -56
   7564.00000000           -115            -79           -133             34
   7568.00000000           -146           -130              7             -9
   7572.00000000            103            264            -55             94
   7576.00000000           -117            -75             48            121
   7580.00000000            -11           -110             52            214
   7584.00000000              6            104            -83            -57
   7588.00000000           -181            -56            -25             58
   7592.00000000            168           -121            140            -11
   7596.00000000            126             38           -106            -28
   7600.00000000            146            239             86             80
   7604.00000000             27            -63            205            -12
   7608.00000000            -22             65            -15             49
   7612.00000000            124            -42            182            230
   7616.00000000           -148            159             60            -43
   7620.00000000            -27            -39            -94              1
   7624.00000000            -85            124            -78              8
   7628.00000000             66           -132           -112            179
   7632.00000000             30            244             49            -33
   7636.00000000            -14            121           -212             67
   7640.00000000             73             59             79            143
   7644.00000000            -23             11             41            -22
   7648.00000000            -52            -37             88              9
   7652.00000000            208            -57             48            -36
   7656.00000000           -106             -4             68            145
   7660.00000000             13             -3           -114             94
   7664.00000000            -61            122             47           -135
   7668.00000000           -286           -166            275           -223
   7672.00000000            115           -133             62             22
   7676.00000000             99            140              5             69
   7680.00000000             66           -210            -21            134
   7684.00000000           -174           -152             46            -27
   7688.00000000           -113             83             33           -137
   7692.00000000            -91             20            -39             34
   7696.00000000             -6            236            -51            -72
   7700.00000000            100             44             47             77
   7704.00000000           -196            -81             34             48
   7708.00000000            121           -179             79              5
   7712.00000000            -12            -46             -7            127
   7716.00000000           -124           -335             96             -7
   7720.00000000            -13            -72           -104             77
   7724.00000000           -201            -59             48             22
   7728.00000000            172            -84            -14            -26
   7732.00000000             19             88             67            138
   7736.00000000             76            145            -90             32
   7740.00000000             45            -10            -28             70
   7744.00000000             -0            -62            -73             50
   7748.00000000            -50            -27            -83             88
   7752.00000000             52            200            116             28
   7756.00000000            109            -62            -33             33
   7760.00000000             76            -13             -5            -53
   7764.00000000             68             25             44           -137
   7768.00000000            177            -38             84            135
   7772.00000000             60            -54            -42            -20
   7776.00000000            -12            -81             45            168
   7780.00000000             77            -33             26            -18
   7784.00000000             48            -97            -89            139
   7788.00000000             95           -157            -58           -164
   7792.00000000             39            236            -37              5
   7796.00000000             61             34           -158             80
   7800.00000000           -116            128            -84             44
   7804.00000000             42              1            -79            147
   7808.00000000           -210             86            -14            121
   7812.00000000            138            -76            -60            153
   7816.00000000            125             72            -21            -70
   7820.00000000             20             67            106              7
   7824.00000000           -140              7             -3             -3
   7828.00000000            -90            -25           -129            -22
   7832.00000000            107            174            -24             -2
   7836.00000000             45             -1            -26            -24
   7840.00000000             24              3             39            -52
   7844.00000000             48           -150           -133            -70
   7848.00000000            -58            105           -146             81
   7852.00000000           -109           -115             66             -2
   7856.00000000           -165            103            -68             33
   7860.00000000             88            156            -46            134
   7864.00000000             68            -29            -58             12
   7868.00000000             34             81             -7            155
   7872.00000000            -35            -37            -86             70
   7876.00000000            -26             60            -70            177
   7880.00000000             -4            -63            181            -73
   7884.00000000            -82             56            -80            -71
   7888.00000000            -41           -127             23              7
   7892.00000000            141             26            -58            -46
   7896.00000000             77           -112            -21             40
   7900.00000000             23            -59             -1             58
   7904.00000000            114            -67             57            163
   7908.00000000            -70            -33            117            -88
   7912.00000000             94           -115             38            -62
   7916.00000000            -15             73            132           -133
   7920.00000000             64            -26            -16             82
   7924.00000000             23             -9            100            139
   7928.00000000            -12            -10             -5            -13
   7932.00000000             83            142            165            -18
   7936.00000000             52            -44            -90            -69
   7940.00000000           -109            -13            -23            -43
   7944.00000000            -24            -37            -58             37
   7948.00000000            -72           -116             42             83
   7952.00000000             54            -47             15           -100
   7956.00000000            -26             28             51             43
   7960.00000000             76              2             78             84
   7964.00000000             15             47            -70            -59
   7968.00000000             67            -55            -12             10
   7972.00000000            -48            -93             27            -19
   7976.00000000            -36             -7             34            -96
   7980.00000000             26             98             67            -10
   7984.00000000             28             31             -2             85
   7988.00000000            -18            139            -44             16
   7992.00000000            176             -5             86            -10
   7996.00000000            -55           -183             62             50
   8000.00000000              8             81            -79             24
   8004.00000000            -27             32            -82             63
   8008.00000000             12             91            -47              9
   8012.00000000             12            -37            -33            -28
   8016.00000000            120              6             25            -62
   8020.00000000             38             55             21            -11
   8024.00000000             -4            -18            -85             59
   8028.00000000            -36             47             25            -36
   8032.00000000             18            -60            -39             71
   8036.00000000             80             34             36             76
   8040.00000000            -21            -56            -12            115
   8044.00000000             50             31             51             10
   8048.00000000             32            -64            -15            -94
   8052.00000000             -5             29            -59            -17
   8056.00000000            115            -10            -55             79
   8060.00000000            103            120            137             12
   8064.00000000            -90            -27             80             89
   8068.00000000            -13             50            -28            -40
   8072.00000000            -59             42            122             49
   8076.00000000            -10             79              2             55
   8080.00000000             78            108            -10            -67
   8084.00000000            -30           -103             43             14
   8088.00000000            159             52            -56             35
   8092.00000000            -20            101            -27            -27
   8096.00000000             -1           -170             41            -38
   8100.00000000            -18           -162             25              6
   8104.00000000             43            -84             77              1
   8108.00000000             96             69              8            -29
   8112.00000000             27           -104             41             -4
   8116.00000000            -81             70            -52             41
   8120.00000000           -111            -31            -73            -51
   8124.00000000             23             43             15             41
   8128.00000000            -29             37             49             62
   8132.00000000           -115           -172            147            -13
   8136.00000000            -50             14             51             47
   8140.00000000            -84             24            -60              9
   8144.00000000             79            -28             90           -116
   8148.00000000            -79            -58           -159            -16
   8152.00000000             49             86             45             -6
   8156.00000000             79             -0             27            -42
   8160.00000000              0            -45            -76            -28
   8164.00000000             23             26             22            -11
   8168.00000000            -52             52             14             51
   8172.00000000            -60             20             24             35
   8176.00000000            -65            -11              7            -53
   8180.00000000             -3             -6             17             13
   8184.00000000           -118             19              9            -55
   8188.00000000            -69            121           -120             36
##END NTUPLES=NMR FID
##END=
